ITEM: TIMESTEP
0          0
ITEM: NUMBER OF ATOMS
1536
ITEM: BOX BOUNDS
0 77.44
0 100.598
-1.21 1.21
ITEM: ATOMS id type x y z
1 2 0 0 0 
2 2 1.21 2.09578 0 
3 2 2.42 0 0 
4 2 3.63 2.09578 0 
5 2 4.84 0 0 
6 2 6.05 2.09578 0 
7 2 7.26 0 0 
8 2 8.47 2.09578 0 
9 2 9.68 0 0 
10 2 10.89 2.09578 0 
11 2 12.1 0 0 
12 2 13.31 2.09578 0 
13 2 14.52 0 0 
14 2 15.73 2.09578 0 
15 2 16.94 0 0 
16 2 18.15 2.09578 0 
17 2 19.36 0 0 
18 2 20.57 2.09578 0 
19 2 21.78 0 0 
20 2 22.99 2.09578 0 
21 2 24.2 0 0 
22 2 25.41 2.09578 0 
23 2 26.62 0 0 
24 2 27.83 2.09578 0 
25 2 29.04 0 0 
26 2 30.25 2.09578 0 
27 2 31.46 0 0 
28 2 32.67 2.09578 0 
29 2 33.88 0 0 
30 2 35.09 2.09578 0 
31 2 36.3 0 0 
32 2 37.51 2.09578 0 
33 2 38.72 0 0 
34 2 39.93 2.09578 0 
35 2 41.14 0 0 
36 2 42.35 2.09578 0 
37 2 43.56 0 0 
38 2 44.77 2.09578 0 
39 2 45.98 0 0 
40 2 47.19 2.09578 0 
41 2 48.4 0 0 
42 2 49.61 2.09578 0 
43 2 50.82 0 0 
44 2 52.03 2.09578 0 
45 2 53.24 0 0 
46 2 54.45 2.09578 0 
47 2 55.66 0 0 
48 2 56.87 2.09578 0 
49 2 58.08 0 0 
50 2 59.29 2.09578 0 
51 2 60.5 0 0 
52 2 61.71 2.09578 0 
53 2 62.92 0 0 
54 2 64.13 2.09578 0 
55 2 65.34 0 0 
56 2 66.55 2.09578 0 
57 2 67.76 0 0 
58 2 68.97 2.09578 0 
59 2 70.18 0 0 
60 2 71.39 2.09578 0 
61 2 72.6 0 0 
62 2 73.81 2.09578 0 
63 2 75.02 0 0 
64 2 76.23 2.09578 0 
65 2 0 4.19156 0 
66 1 1.21 6.28734 0 
67 2 2.42 4.19156 0 
68 1 3.63 6.28734 0 
69 2 4.84 4.19156 0 
70 1 6.05 6.28734 0 
71 2 7.26 4.19156 0 
72 1 8.47 6.28734 0 
73 2 9.68 4.19156 0 
74 1 10.89 6.28734 0 
75 2 12.1 4.19156 0 
76 1 13.31 6.28734 0 
77 2 14.52 4.19156 0 
78 1 15.73 6.28734 0 
79 2 16.94 4.19156 0 
80 1 18.15 6.28734 0 
81 2 19.36 4.19156 0 
82 1 20.57 6.28734 0 
83 2 21.78 4.19156 0 
84 1 22.99 6.28734 0 
85 2 24.2 4.19156 0 
86 1 25.41 6.28734 0 
87 2 26.62 4.19156 0 
88 1 27.83 6.28734 0 
89 2 29.04 4.19156 0 
90 1 30.25 6.28734 0 
91 2 31.46 4.19156 0 
92 1 32.67 6.28734 0 
93 2 33.88 4.19156 0 
94 1 35.09 6.28734 0 
95 2 36.3 4.19156 0 
96 1 37.51 6.28734 0 
97 2 38.72 4.19156 0 
98 1 39.93 6.28734 0 
99 2 41.14 4.19156 0 
100 1 42.35 6.28734 0 
101 2 43.56 4.19156 0 
102 1 44.77 6.28734 0 
103 2 45.98 4.19156 0 
104 1 47.19 6.28734 0 
105 2 48.4 4.19156 0 
106 1 49.61 6.28734 0 
107 2 50.82 4.19156 0 
108 1 52.03 6.28734 0 
109 2 53.24 4.19156 0 
110 1 54.45 6.28734 0 
111 2 55.66 4.19156 0 
112 1 56.87 6.28734 0 
113 2 58.08 4.19156 0 
114 1 59.29 6.28734 0 
115 2 60.5 4.19156 0 
116 1 61.71 6.28734 0 
117 2 62.92 4.19156 0 
118 1 64.13 6.28734 0 
119 2 65.34 4.19156 0 
120 1 66.55 6.28734 0 
121 2 67.76 4.19156 0 
122 1 68.97 6.28734 0 
123 2 70.18 4.19156 0 
124 1 71.39 6.28734 0 
125 2 72.6 4.19156 0 
126 1 73.81 6.28734 0 
127 2 75.02 4.19156 0 
128 1 76.23 6.28734 0 
129 1 0 8.38313 0 
130 1 1.21 10.4789 0 
131 1 2.42 8.38313 0 
132 1 3.63 10.4789 0 
133 1 4.84 8.38313 0 
134 1 6.05 10.4789 0 
135 1 7.26 8.38313 0 
136 1 8.47 10.4789 0 
137 1 9.68 8.38313 0 
138 1 10.89 10.4789 0 
139 1 12.1 8.38313 0 
140 1 13.31 10.4789 0 
141 1 14.52 8.38313 0 
142 1 15.73 10.4789 0 
143 1 16.94 8.38313 0 
144 1 18.15 10.4789 0 
145 1 19.36 8.38313 0 
146 1 20.57 10.4789 0 
147 1 21.78 8.38313 0 
148 1 22.99 10.4789 0 
149 1 24.2 8.38313 0 
150 1 25.41 10.4789 0 
151 1 26.62 8.38313 0 
152 1 27.83 10.4789 0 
153 1 29.04 8.38313 0 
154 1 30.25 10.4789 0 
155 1 31.46 8.38313 0 
156 1 32.67 10.4789 0 
157 1 33.88 8.38313 0 
158 1 35.09 10.4789 0 
159 1 36.3 8.38313 0 
160 1 37.51 10.4789 0 
161 1 38.72 8.38313 0 
162 1 39.93 10.4789 0 
163 1 41.14 8.38313 0 
164 1 42.35 10.4789 0 
165 1 43.56 8.38313 0 
166 1 44.77 10.4789 0 
167 1 45.98 8.38313 0 
168 1 47.19 10.4789 0 
169 1 48.4 8.38313 0 
170 1 49.61 10.4789 0 
171 1 50.82 8.38313 0 
172 1 52.03 10.4789 0 
173 1 53.24 8.38313 0 
174 1 54.45 10.4789 0 
175 1 55.66 8.38313 0 
176 1 56.87 10.4789 0 
177 1 58.08 8.38313 0 
178 1 59.29 10.4789 0 
179 1 60.5 8.38313 0 
180 1 61.71 10.4789 0 
181 1 62.92 8.38313 0 
182 1 64.13 10.4789 0 
183 1 65.34 8.38313 0 
184 1 66.55 10.4789 0 
185 1 67.76 8.38313 0 
186 1 68.97 10.4789 0 
187 1 70.18 8.38313 0 
188 1 71.39 10.4789 0 
189 1 72.6 8.38313 0 
190 1 73.81 10.4789 0 
191 1 75.02 8.38313 0 
192 1 76.23 10.4789 0 
193 1 0 12.5747 0 
194 1 1.21 14.6705 0 
195 1 2.42 12.5747 0 
196 1 3.63 14.6705 0 
197 1 4.84 12.5747 0 
198 1 6.05 14.6705 0 
199 1 7.26 12.5747 0 
200 1 8.47 14.6705 0 
201 1 9.68 12.5747 0 
202 1 10.89 14.6705 0 
203 1 12.1 12.5747 0 
204 1 13.31 14.6705 0 
205 1 14.52 12.5747 0 
206 1 15.73 14.6705 0 
207 1 16.94 12.5747 0 
208 1 18.15 14.6705 0 
209 1 19.36 12.5747 0 
210 1 20.57 14.6705 0 
211 1 21.78 12.5747 0 
212 1 22.99 14.6705 0 
213 1 24.2 12.5747 0 
214 1 25.41 14.6705 0 
215 1 26.62 12.5747 0 
216 1 27.83 14.6705 0 
217 1 29.04 12.5747 0 
218 1 30.25 14.6705 0 
219 1 31.46 12.5747 0 
220 1 32.67 14.6705 0 
221 1 33.88 12.5747 0 
222 1 35.09 14.6705 0 
223 1 36.3 12.5747 0 
224 1 37.51 14.6705 0 
225 1 38.72 12.5747 0 
226 1 39.93 14.6705 0 
227 1 41.14 12.5747 0 
228 1 42.35 14.6705 0 
229 1 43.56 12.5747 0 
230 1 44.77 14.6705 0 
231 1 45.98 12.5747 0 
232 1 47.19 14.6705 0 
233 1 48.4 12.5747 0 
234 1 49.61 14.6705 0 
235 1 50.82 12.5747 0 
236 1 52.03 14.6705 0 
237 1 53.24 12.5747 0 
238 1 54.45 14.6705 0 
239 1 55.66 12.5747 0 
240 1 56.87 14.6705 0 
241 1 58.08 12.5747 0 
242 1 59.29 14.6705 0 
243 1 60.5 12.5747 0 
244 1 61.71 14.6705 0 
245 1 62.92 12.5747 0 
246 1 64.13 14.6705 0 
247 1 65.34 12.5747 0 
248 1 66.55 14.6705 0 
249 1 67.76 12.5747 0 
250 1 68.97 14.6705 0 
251 1 70.18 12.5747 0 
252 1 71.39 14.6705 0 
253 1 72.6 12.5747 0 
254 1 73.81 14.6705 0 
255 1 75.02 12.5747 0 
256 1 76.23 14.6705 0 
257 1 0 16.7663 0 
258 1 1.21 18.862 0 
259 1 2.42 16.7663 0 
260 1 3.63 18.862 0 
261 1 4.84 16.7663 0 
262 1 6.05 18.862 0 
263 1 7.26 16.7663 0 
264 1 8.47 18.862 0 
265 1 9.68 16.7663 0 
266 1 10.89 18.862 0 
267 1 12.1 16.7663 0 
268 1 13.31 18.862 0 
269 1 14.52 16.7663 0 
270 1 15.73 18.862 0 
271 1 16.94 16.7663 0 
272 1 18.15 18.862 0 
273 1 19.36 16.7663 0 
274 1 20.57 18.862 0 
275 1 21.78 16.7663 0 
276 1 22.99 18.862 0 
277 1 24.2 16.7663 0 
278 1 25.41 18.862 0 
279 1 26.62 16.7663 0 
280 1 27.83 18.862 0 
281 1 29.04 16.7663 0 
282 1 30.25 18.862 0 
283 1 31.46 16.7663 0 
284 1 32.67 18.862 0 
285 1 33.88 16.7663 0 
286 1 35.09 18.862 0 
287 1 36.3 16.7663 0 
288 1 37.51 18.862 0 
289 1 38.72 16.7663 0 
290 1 39.93 18.862 0 
291 1 41.14 16.7663 0 
292 1 42.35 18.862 0 
293 1 43.56 16.7663 0 
294 1 44.77 18.862 0 
295 1 45.98 16.7663 0 
296 1 47.19 18.862 0 
297 1 48.4 16.7663 0 
298 1 49.61 18.862 0 
299 1 50.82 16.7663 0 
300 1 52.03 18.862 0 
301 1 53.24 16.7663 0 
302 1 54.45 18.862 0 
303 1 55.66 16.7663 0 
304 1 56.87 18.862 0 
305 1 58.08 16.7663 0 
306 1 59.29 18.862 0 
307 1 60.5 16.7663 0 
308 1 61.71 18.862 0 
309 1 62.92 16.7663 0 
310 1 64.13 18.862 0 
311 1 65.34 16.7663 0 
312 1 66.55 18.862 0 
313 1 67.76 16.7663 0 
314 1 68.97 18.862 0 
315 1 70.18 16.7663 0 
316 1 71.39 18.862 0 
317 1 72.6 16.7663 0 
318 1 73.81 18.862 0 
319 1 75.02 16.7663 0 
320 1 76.23 18.862 0 
321 1 0 20.9578 0 
322 1 1.21 23.0536 0 
323 1 2.42 20.9578 0 
324 1 3.63 23.0536 0 
325 1 4.84 20.9578 0 
326 1 6.05 23.0536 0 
327 1 7.26 20.9578 0 
328 1 8.47 23.0536 0 
329 1 9.68 20.9578 0 
330 1 10.89 23.0536 0 
331 1 12.1 20.9578 0 
332 1 13.31 23.0536 0 
333 1 14.52 20.9578 0 
334 1 15.73 23.0536 0 
335 1 16.94 20.9578 0 
336 1 18.15 23.0536 0 
337 1 19.36 20.9578 0 
338 1 20.57 23.0536 0 
339 1 21.78 20.9578 0 
340 1 22.99 23.0536 0 
341 1 24.2 20.9578 0 
342 1 25.41 23.0536 0 
343 1 26.62 20.9578 0 
344 1 27.83 23.0536 0 
345 1 29.04 20.9578 0 
346 1 30.25 23.0536 0 
347 1 31.46 20.9578 0 
348 1 32.67 23.0536 0 
349 1 33.88 20.9578 0 
350 1 35.09 23.0536 0 
351 1 36.3 20.9578 0 
352 1 37.51 23.0536 0 
353 1 38.72 20.9578 0 
354 1 39.93 23.0536 0 
355 1 41.14 20.9578 0 
356 1 42.35 23.0536 0 
357 1 43.56 20.9578 0 
358 1 44.77 23.0536 0 
359 1 45.98 20.9578 0 
360 1 47.19 23.0536 0 
361 1 48.4 20.9578 0 
362 1 49.61 23.0536 0 
363 1 50.82 20.9578 0 
364 1 52.03 23.0536 0 
365 1 53.24 20.9578 0 
366 1 54.45 23.0536 0 
367 1 55.66 20.9578 0 
368 1 56.87 23.0536 0 
369 1 58.08 20.9578 0 
370 1 59.29 23.0536 0 
371 1 60.5 20.9578 0 
372 1 61.71 23.0536 0 
373 1 62.92 20.9578 0 
374 1 64.13 23.0536 0 
375 1 65.34 20.9578 0 
376 1 66.55 23.0536 0 
377 1 67.76 20.9578 0 
378 1 68.97 23.0536 0 
379 1 70.18 20.9578 0 
380 1 71.39 23.0536 0 
381 1 72.6 20.9578 0 
382 1 73.81 23.0536 0 
383 1 75.02 20.9578 0 
384 1 76.23 23.0536 0 
385 1 0 25.1494 0 
386 1 1.21 27.2452 0 
387 1 2.42 25.1494 0 
388 1 3.63 27.2452 0 
389 1 4.84 25.1494 0 
390 1 6.05 27.2452 0 
391 1 7.26 25.1494 0 
392 1 8.47 27.2452 0 
393 1 9.68 25.1494 0 
394 1 10.89 27.2452 0 
395 1 12.1 25.1494 0 
396 1 13.31 27.2452 0 
397 1 14.52 25.1494 0 
398 1 15.73 27.2452 0 
399 1 16.94 25.1494 0 
400 1 18.15 27.2452 0 
401 1 19.36 25.1494 0 
402 1 20.57 27.2452 0 
403 1 21.78 25.1494 0 
404 1 22.99 27.2452 0 
405 1 24.2 25.1494 0 
406 1 25.41 27.2452 0 
407 1 26.62 25.1494 0 
408 1 27.83 27.2452 0 
409 1 29.04 25.1494 0 
410 1 30.25 27.2452 0 
411 1 31.46 25.1494 0 
412 1 32.67 27.2452 0 
413 1 33.88 25.1494 0 
414 1 35.09 27.2452 0 
415 1 36.3 25.1494 0 
416 1 37.51 27.2452 0 
417 1 38.72 25.1494 0 
418 1 39.93 27.2452 0 
419 1 41.14 25.1494 0 
420 1 42.35 27.2452 0 
421 1 43.56 25.1494 0 
422 1 44.77 27.2452 0 
423 1 45.98 25.1494 0 
424 1 47.19 27.2452 0 
425 1 48.4 25.1494 0 
426 1 49.61 27.2452 0 
427 1 50.82 25.1494 0 
428 1 52.03 27.2452 0 
429 1 53.24 25.1494 0 
430 1 54.45 27.2452 0 
431 1 55.66 25.1494 0 
432 1 56.87 27.2452 0 
433 1 58.08 25.1494 0 
434 1 59.29 27.2452 0 
435 1 60.5 25.1494 0 
436 1 61.71 27.2452 0 
437 1 62.92 25.1494 0 
438 1 64.13 27.2452 0 
439 1 65.34 25.1494 0 
440 1 66.55 27.2452 0 
441 1 67.76 25.1494 0 
442 1 68.97 27.2452 0 
443 1 70.18 25.1494 0 
444 1 71.39 27.2452 0 
445 1 72.6 25.1494 0 
446 1 73.81 27.2452 0 
447 1 75.02 25.1494 0 
448 1 76.23 27.2452 0 
449 1 0 29.3409 0 
450 1 1.21 31.4367 0 
451 1 2.42 29.3409 0 
452 1 3.63 31.4367 0 
453 1 4.84 29.3409 0 
454 1 6.05 31.4367 0 
455 1 7.26 29.3409 0 
456 1 8.47 31.4367 0 
457 1 9.68 29.3409 0 
458 1 10.89 31.4367 0 
459 1 12.1 29.3409 0 
460 1 13.31 31.4367 0 
461 1 14.52 29.3409 0 
462 1 15.73 31.4367 0 
463 1 16.94 29.3409 0 
464 1 18.15 31.4367 0 
465 1 19.36 29.3409 0 
466 1 20.57 31.4367 0 
467 1 21.78 29.3409 0 
468 1 22.99 31.4367 0 
469 1 24.2 29.3409 0 
470 1 25.41 31.4367 0 
471 1 26.62 29.3409 0 
472 1 27.83 31.4367 0 
473 1 29.04 29.3409 0 
474 1 30.25 31.4367 0 
475 1 31.46 29.3409 0 
476 1 32.67 31.4367 0 
477 1 33.88 29.3409 0 
478 1 35.09 31.4367 0 
479 1 36.3 29.3409 0 
480 1 37.51 31.4367 0 
481 1 38.72 29.3409 0 
482 1 39.93 31.4367 0 
483 1 41.14 29.3409 0 
484 1 42.35 31.4367 0 
485 1 43.56 29.3409 0 
486 1 44.77 31.4367 0 
487 1 45.98 29.3409 0 
488 1 47.19 31.4367 0 
489 1 48.4 29.3409 0 
490 1 49.61 31.4367 0 
491 1 50.82 29.3409 0 
492 1 52.03 31.4367 0 
493 1 53.24 29.3409 0 
494 1 54.45 31.4367 0 
495 1 55.66 29.3409 0 
496 1 56.87 31.4367 0 
497 1 58.08 29.3409 0 
498 1 59.29 31.4367 0 
499 1 60.5 29.3409 0 
500 1 61.71 31.4367 0 
501 1 62.92 29.3409 0 
502 1 64.13 31.4367 0 
503 1 65.34 29.3409 0 
504 1 66.55 31.4367 0 
505 1 67.76 29.3409 0 
506 1 68.97 31.4367 0 
507 1 70.18 29.3409 0 
508 1 71.39 31.4367 0 
509 1 72.6 29.3409 0 
510 1 73.81 31.4367 0 
511 1 75.02 29.3409 0 
512 1 76.23 31.4367 0 
513 1 0 33.5325 0 
514 1 1.21 35.6283 0 
515 1 2.42 33.5325 0 
516 1 3.63 35.6283 0 
517 1 4.84 33.5325 0 
518 1 6.05 35.6283 0 
519 1 7.26 33.5325 0 
520 1 8.47 35.6283 0 
521 1 9.68 33.5325 0 
522 1 10.89 35.6283 0 
523 1 12.1 33.5325 0 
524 1 13.31 35.6283 0 
525 1 14.52 33.5325 0 
526 1 15.73 35.6283 0 
527 1 16.94 33.5325 0 
528 1 18.15 35.6283 0 
529 1 19.36 33.5325 0 
530 1 20.57 35.6283 0 
531 1 21.78 33.5325 0 
532 1 22.99 35.6283 0 
533 1 24.2 33.5325 0 
534 1 25.41 35.6283 0 
535 1 26.62 33.5325 0 
536 1 27.83 35.6283 0 
537 1 29.04 33.5325 0 
538 1 30.25 35.6283 0 
539 1 31.46 33.5325 0 
540 1 32.67 35.6283 0 
541 1 33.88 33.5325 0 
542 1 35.09 35.6283 0 
543 1 36.3 33.5325 0 
544 1 37.51 35.6283 0 
545 1 38.72 33.5325 0 
546 1 39.93 35.6283 0 
547 1 41.14 33.5325 0 
548 1 42.35 35.6283 0 
549 1 43.56 33.5325 0 
550 1 44.77 35.6283 0 
551 1 45.98 33.5325 0 
552 1 47.19 35.6283 0 
553 1 48.4 33.5325 0 
554 1 49.61 35.6283 0 
555 1 50.82 33.5325 0 
556 1 52.03 35.6283 0 
557 1 53.24 33.5325 0 
558 1 54.45 35.6283 0 
559 1 55.66 33.5325 0 
560 1 56.87 35.6283 0 
561 1 58.08 33.5325 0 
562 1 59.29 35.6283 0 
563 1 60.5 33.5325 0 
564 1 61.71 35.6283 0 
565 1 62.92 33.5325 0 
566 1 64.13 35.6283 0 
567 1 65.34 33.5325 0 
568 1 66.55 35.6283 0 
569 1 67.76 33.5325 0 
570 1 68.97 35.6283 0 
571 1 70.18 33.5325 0 
572 1 71.39 35.6283 0 
573 1 72.6 33.5325 0 
574 1 73.81 35.6283 0 
575 1 75.02 33.5325 0 
576 1 76.23 35.6283 0 
577 1 0 37.7241 0 
578 1 1.21 39.8198 0 
579 1 2.42 37.7241 0 
580 1 3.63 39.8198 0 
581 1 4.84 37.7241 0 
582 1 6.05 39.8198 0 
583 1 7.26 37.7241 0 
584 1 8.47 39.8198 0 
585 1 9.68 37.7241 0 
586 1 10.89 39.8198 0 
587 1 12.1 37.7241 0 
588 1 13.31 39.8198 0 
589 1 14.52 37.7241 0 
590 1 15.73 39.8198 0 
591 1 16.94 37.7241 0 
592 1 18.15 39.8198 0 
593 1 19.36 37.7241 0 
594 1 20.57 39.8198 0 
595 1 21.78 37.7241 0 
596 1 22.99 39.8198 0 
597 1 24.2 37.7241 0 
598 1 25.41 39.8198 0 
599 1 26.62 37.7241 0 
600 1 27.83 39.8198 0 
601 1 29.04 37.7241 0 
602 1 30.25 39.8198 0 
603 1 31.46 37.7241 0 
604 1 32.67 39.8198 0 
605 1 33.88 37.7241 0 
606 1 35.09 39.8198 0 
607 1 36.3 37.7241 0 
608 1 37.51 39.8198 0 
609 1 38.72 37.7241 0 
610 1 39.93 39.8198 0 
611 1 41.14 37.7241 0 
612 1 42.35 39.8198 0 
613 1 43.56 37.7241 0 
614 1 44.77 39.8198 0 
615 1 45.98 37.7241 0 
616 1 47.19 39.8198 0 
617 1 48.4 37.7241 0 
618 1 49.61 39.8198 0 
619 1 50.82 37.7241 0 
620 1 52.03 39.8198 0 
621 1 53.24 37.7241 0 
622 1 54.45 39.8198 0 
623 1 55.66 37.7241 0 
624 1 56.87 39.8198 0 
625 1 58.08 37.7241 0 
626 1 59.29 39.8198 0 
627 1 60.5 37.7241 0 
628 1 61.71 39.8198 0 
629 1 62.92 37.7241 0 
630 1 64.13 39.8198 0 
631 1 65.34 37.7241 0 
632 1 66.55 39.8198 0 
633 1 67.76 37.7241 0 
634 1 68.97 39.8198 0 
635 1 70.18 37.7241 0 
636 1 71.39 39.8198 0 
637 1 72.6 37.7241 0 
638 1 73.81 39.8198 0 
639 1 75.02 37.7241 0 
640 1 76.23 39.8198 0 
641 1 0 41.9156 0 
642 1 1.21 44.0114 0 
643 1 2.42 41.9156 0 
644 1 3.63 44.0114 0 
645 1 4.84 41.9156 0 
646 1 6.05 44.0114 0 
647 1 7.26 41.9156 0 
648 1 8.47 44.0114 0 
649 1 9.68 41.9156 0 
650 1 10.89 44.0114 0 
651 1 12.1 41.9156 0 
652 1 13.31 44.0114 0 
653 1 14.52 41.9156 0 
654 1 15.73 44.0114 0 
655 1 16.94 41.9156 0 
656 1 18.15 44.0114 0 
657 1 19.36 41.9156 0 
658 1 20.57 44.0114 0 
659 1 21.78 41.9156 0 
660 1 22.99 44.0114 0 
661 1 24.2 41.9156 0 
662 1 25.41 44.0114 0 
663 1 26.62 41.9156 0 
664 1 27.83 44.0114 0 
665 1 29.04 41.9156 0 
666 1 30.25 44.0114 0 
667 1 31.46 41.9156 0 
668 1 32.67 44.0114 0 
669 1 33.88 41.9156 0 
670 1 35.09 44.0114 0 
671 1 36.3 41.9156 0 
672 1 37.51 44.0114 0 
673 1 38.72 41.9156 0 
674 1 39.93 44.0114 0 
675 1 41.14 41.9156 0 
676 1 42.35 44.0114 0 
677 1 43.56 41.9156 0 
678 1 44.77 44.0114 0 
679 1 45.98 41.9156 0 
680 1 47.19 44.0114 0 
681 1 48.4 41.9156 0 
682 1 49.61 44.0114 0 
683 1 50.82 41.9156 0 
684 1 52.03 44.0114 0 
685 1 53.24 41.9156 0 
686 1 54.45 44.0114 0 
687 1 55.66 41.9156 0 
688 1 56.87 44.0114 0 
689 1 58.08 41.9156 0 
690 1 59.29 44.0114 0 
691 1 60.5 41.9156 0 
692 1 61.71 44.0114 0 
693 1 62.92 41.9156 0 
694 1 64.13 44.0114 0 
695 1 65.34 41.9156 0 
696 1 66.55 44.0114 0 
697 1 67.76 41.9156 0 
698 1 68.97 44.0114 0 
699 1 70.18 41.9156 0 
700 1 71.39 44.0114 0 
701 1 72.6 41.9156 0 
702 1 73.81 44.0114 0 
703 1 75.02 41.9156 0 
704 1 76.23 44.0114 0 
705 1 0 46.1072 0 
706 1 1.21 48.203 0 
707 1 2.42 46.1072 0 
708 1 3.63 48.203 0 
709 1 4.84 46.1072 0 
710 1 6.05 48.203 0 
711 1 7.26 46.1072 0 
712 1 8.47 48.203 0 
713 1 9.68 46.1072 0 
714 1 10.89 48.203 0 
715 1 12.1 46.1072 0 
716 1 13.31 48.203 0 
717 1 14.52 46.1072 0 
718 1 15.73 48.203 0 
719 1 16.94 46.1072 0 
720 1 18.15 48.203 0 
721 1 19.36 46.1072 0 
722 1 20.57 48.203 0 
723 1 21.78 46.1072 0 
724 1 22.99 48.203 0 
725 1 24.2 46.1072 0 
726 1 25.41 48.203 0 
727 1 26.62 46.1072 0 
728 1 27.83 48.203 0 
729 1 29.04 46.1072 0 
730 1 30.25 48.203 0 
731 1 31.46 46.1072 0 
732 1 32.67 48.203 0 
733 1 33.88 46.1072 0 
734 1 35.09 48.203 0 
735 1 36.3 46.1072 0 
736 1 37.51 48.203 0 
737 1 38.72 46.1072 0 
738 1 39.93 48.203 0 
739 1 41.14 46.1072 0 
740 1 42.35 48.203 0 
741 1 43.56 46.1072 0 
742 1 44.77 48.203 0 
743 1 45.98 46.1072 0 
744 1 47.19 48.203 0 
745 1 48.4 46.1072 0 
746 1 49.61 48.203 0 
747 1 50.82 46.1072 0 
748 1 52.03 48.203 0 
749 1 53.24 46.1072 0 
750 1 54.45 48.203 0 
751 1 55.66 46.1072 0 
752 1 56.87 48.203 0 
753 1 58.08 46.1072 0 
754 1 59.29 48.203 0 
755 1 60.5 46.1072 0 
756 1 61.71 48.203 0 
757 1 62.92 46.1072 0 
758 1 64.13 48.203 0 
759 1 65.34 46.1072 0 
760 1 66.55 48.203 0 
761 1 67.76 46.1072 0 
762 1 68.97 48.203 0 
763 1 70.18 46.1072 0 
764 1 71.39 48.203 0 
765 1 72.6 46.1072 0 
766 1 73.81 48.203 0 
767 1 75.02 46.1072 0 
768 1 76.23 48.203 0 
769 1 0 50.2988 0 
770 1 1.21 52.3945 0 
771 1 2.42 50.2988 0 
772 1 3.63 52.3945 0 
773 1 4.84 50.2988 0 
774 1 6.05 52.3945 0 
775 1 7.26 50.2988 0 
776 1 8.47 52.3945 0 
777 1 9.68 50.2988 0 
778 1 10.89 52.3945 0 
779 1 12.1 50.2988 0 
780 1 13.31 52.3945 0 
781 1 14.52 50.2988 0 
782 1 15.73 52.3945 0 
783 1 16.94 50.2988 0 
784 1 18.15 52.3945 0 
785 1 19.36 50.2988 0 
786 1 20.57 52.3945 0 
787 1 21.78 50.2988 0 
788 1 22.99 52.3945 0 
789 1 24.2 50.2988 0 
790 1 25.41 52.3945 0 
791 1 26.62 50.2988 0 
792 1 27.83 52.3945 0 
793 1 29.04 50.2988 0 
794 1 30.25 52.3945 0 
795 1 31.46 50.2988 0 
796 1 32.67 52.3945 0 
797 1 33.88 50.2988 0 
798 1 35.09 52.3945 0 
799 1 36.3 50.2988 0 
800 1 37.51 52.3945 0 
801 1 38.72 50.2988 0 
802 1 39.93 52.3945 0 
803 1 41.14 50.2988 0 
804 1 42.35 52.3945 0 
805 1 43.56 50.2988 0 
806 1 44.77 52.3945 0 
807 1 45.98 50.2988 0 
808 1 47.19 52.3945 0 
809 1 48.4 50.2988 0 
810 1 49.61 52.3945 0 
811 1 50.82 50.2988 0 
812 1 52.03 52.3945 0 
813 1 53.24 50.2988 0 
814 1 54.45 52.3945 0 
815 1 55.66 50.2988 0 
816 1 56.87 52.3945 0 
817 1 58.08 50.2988 0 
818 1 59.29 52.3945 0 
819 1 60.5 50.2988 0 
820 1 61.71 52.3945 0 
821 1 62.92 50.2988 0 
822 1 64.13 52.3945 0 
823 1 65.34 50.2988 0 
824 1 66.55 52.3945 0 
825 1 67.76 50.2988 0 
826 1 68.97 52.3945 0 
827 1 70.18 50.2988 0 
828 1 71.39 52.3945 0 
829 1 72.6 50.2988 0 
830 1 73.81 52.3945 0 
831 1 75.02 50.2988 0 
832 1 76.23 52.3945 0 
833 1 0 54.4903 0 
834 1 1.21 56.5861 0 
835 1 2.42 54.4903 0 
836 1 3.63 56.5861 0 
837 1 4.84 54.4903 0 
838 1 6.05 56.5861 0 
839 1 7.26 54.4903 0 
840 1 8.47 56.5861 0 
841 1 9.68 54.4903 0 
842 1 10.89 56.5861 0 
843 1 12.1 54.4903 0 
844 1 13.31 56.5861 0 
845 1 14.52 54.4903 0 
846 1 15.73 56.5861 0 
847 1 16.94 54.4903 0 
848 1 18.15 56.5861 0 
849 1 19.36 54.4903 0 
850 1 20.57 56.5861 0 
851 1 21.78 54.4903 0 
852 1 22.99 56.5861 0 
853 1 24.2 54.4903 0 
854 1 25.41 56.5861 0 
855 1 26.62 54.4903 0 
856 1 27.83 56.5861 0 
857 1 29.04 54.4903 0 
858 1 30.25 56.5861 0 
859 1 31.46 54.4903 0 
860 1 32.67 56.5861 0 
861 1 33.88 54.4903 0 
862 1 35.09 56.5861 0 
863 1 36.3 54.4903 0 
864 1 37.51 56.5861 0 
865 1 38.72 54.4903 0 
866 1 39.93 56.5861 0 
867 1 41.14 54.4903 0 
868 1 42.35 56.5861 0 
869 1 43.56 54.4903 0 
870 1 44.77 56.5861 0 
871 1 45.98 54.4903 0 
872 1 47.19 56.5861 0 
873 1 48.4 54.4903 0 
874 1 49.61 56.5861 0 
875 1 50.82 54.4903 0 
876 1 52.03 56.5861 0 
877 1 53.24 54.4903 0 
878 1 54.45 56.5861 0 
879 1 55.66 54.4903 0 
880 1 56.87 56.5861 0 
881 1 58.08 54.4903 0 
882 1 59.29 56.5861 0 
883 1 60.5 54.4903 0 
884 1 61.71 56.5861 0 
885 1 62.92 54.4903 0 
886 1 64.13 56.5861 0 
887 1 65.34 54.4903 0 
888 1 66.55 56.5861 0 
889 1 67.76 54.4903 0 
890 1 68.97 56.5861 0 
891 1 70.18 54.4903 0 
892 1 71.39 56.5861 0 
893 1 72.6 54.4903 0 
894 1 73.81 56.5861 0 
895 1 75.02 54.4903 0 
896 1 76.23 56.5861 0 
897 1 0 58.6819 0 
898 1 1.21 60.7777 0 
899 1 2.42 58.6819 0 
900 1 3.63 60.7777 0 
901 1 4.84 58.6819 0 
902 1 6.05 60.7777 0 
903 1 7.26 58.6819 0 
904 1 8.47 60.7777 0 
905 1 9.68 58.6819 0 
906 1 10.89 60.7777 0 
907 1 12.1 58.6819 0 
908 1 13.31 60.7777 0 
909 1 14.52 58.6819 0 
910 1 15.73 60.7777 0 
911 1 16.94 58.6819 0 
912 1 18.15 60.7777 0 
913 1 19.36 58.6819 0 
914 1 20.57 60.7777 0 
915 1 21.78 58.6819 0 
916 1 22.99 60.7777 0 
917 1 24.2 58.6819 0 
918 1 25.41 60.7777 0 
919 1 26.62 58.6819 0 
920 1 27.83 60.7777 0 
921 1 29.04 58.6819 0 
922 1 30.25 60.7777 0 
923 1 31.46 58.6819 0 
924 1 32.67 60.7777 0 
925 1 33.88 58.6819 0 
926 1 35.09 60.7777 0 
927 1 36.3 58.6819 0 
928 1 37.51 60.7777 0 
929 1 38.72 58.6819 0 
930 1 39.93 60.7777 0 
931 1 41.14 58.6819 0 
932 1 42.35 60.7777 0 
933 1 43.56 58.6819 0 
934 1 44.77 60.7777 0 
935 1 45.98 58.6819 0 
936 1 47.19 60.7777 0 
937 1 48.4 58.6819 0 
938 1 49.61 60.7777 0 
939 1 50.82 58.6819 0 
940 1 52.03 60.7777 0 
941 1 53.24 58.6819 0 
942 1 54.45 60.7777 0 
943 1 55.66 58.6819 0 
944 1 56.87 60.7777 0 
945 1 58.08 58.6819 0 
946 1 59.29 60.7777 0 
947 1 60.5 58.6819 0 
948 1 61.71 60.7777 0 
949 1 62.92 58.6819 0 
950 1 64.13 60.7777 0 
951 1 65.34 58.6819 0 
952 1 66.55 60.7777 0 
953 1 67.76 58.6819 0 
954 1 68.97 60.7777 0 
955 1 70.18 58.6819 0 
956 1 71.39 60.7777 0 
957 1 72.6 58.6819 0 
958 1 73.81 60.7777 0 
959 1 75.02 58.6819 0 
960 1 76.23 60.7777 0 
961 1 0 62.8734 0 
962 1 1.21 64.9692 0 
963 1 2.42 62.8734 0 
964 1 3.63 64.9692 0 
965 1 4.84 62.8734 0 
966 1 6.05 64.9692 0 
967 1 7.26 62.8734 0 
968 1 8.47 64.9692 0 
969 1 9.68 62.8734 0 
970 1 10.89 64.9692 0 
971 1 12.1 62.8734 0 
972 1 13.31 64.9692 0 
973 1 14.52 62.8734 0 
974 1 15.73 64.9692 0 
975 1 16.94 62.8734 0 
976 1 18.15 64.9692 0 
977 1 19.36 62.8734 0 
978 1 20.57 64.9692 0 
979 1 21.78 62.8734 0 
980 1 22.99 64.9692 0 
981 1 24.2 62.8734 0 
982 1 25.41 64.9692 0 
983 1 26.62 62.8734 0 
984 1 27.83 64.9692 0 
985 1 29.04 62.8734 0 
986 1 30.25 64.9692 0 
987 1 31.46 62.8734 0 
988 1 32.67 64.9692 0 
989 1 33.88 62.8734 0 
990 1 35.09 64.9692 0 
991 1 36.3 62.8734 0 
992 1 37.51 64.9692 0 
993 1 38.72 62.8734 0 
994 1 39.93 64.9692 0 
995 1 41.14 62.8734 0 
996 1 42.35 64.9692 0 
997 1 43.56 62.8734 0 
998 1 44.77 64.9692 0 
999 1 45.98 62.8734 0 
1000 1 47.19 64.9692 0 
1001 1 48.4 62.8734 0 
1002 1 49.61 64.9692 0 
1003 1 50.82 62.8734 0 
1004 1 52.03 64.9692 0 
1005 1 53.24 62.8734 0 
1006 1 54.45 64.9692 0 
1007 1 55.66 62.8734 0 
1008 1 56.87 64.9692 0 
1009 1 58.08 62.8734 0 
1010 1 59.29 64.9692 0 
1011 1 60.5 62.8734 0 
1012 1 61.71 64.9692 0 
1013 1 62.92 62.8734 0 
1014 1 64.13 64.9692 0 
1015 1 65.34 62.8734 0 
1016 1 66.55 64.9692 0 
1017 1 67.76 62.8734 0 
1018 1 68.97 64.9692 0 
1019 1 70.18 62.8734 0 
1020 1 71.39 64.9692 0 
1021 1 72.6 62.8734 0 
1022 1 73.81 64.9692 0 
1023 1 75.02 62.8734 0 
1024 1 76.23 64.9692 0 
1025 1 0 67.065 0 
1026 1 1.21 69.1608 0 
1027 1 2.42 67.065 0 
1028 1 3.63 69.1608 0 
1029 1 4.84 67.065 0 
1030 1 6.05 69.1608 0 
1031 1 7.26 67.065 0 
1032 1 8.47 69.1608 0 
1033 1 9.68 67.065 0 
1034 1 10.89 69.1608 0 
1035 1 12.1 67.065 0 
1036 1 13.31 69.1608 0 
1037 1 14.52 67.065 0 
1038 1 15.73 69.1608 0 
1039 1 16.94 67.065 0 
1040 1 18.15 69.1608 0 
1041 1 19.36 67.065 0 
1042 1 20.57 69.1608 0 
1043 1 21.78 67.065 0 
1044 1 22.99 69.1608 0 
1045 1 24.2 67.065 0 
1046 1 25.41 69.1608 0 
1047 1 26.62 67.065 0 
1048 1 27.83 69.1608 0 
1049 1 29.04 67.065 0 
1050 1 30.25 69.1608 0 
1051 1 31.46 67.065 0 
1052 1 32.67 69.1608 0 
1053 1 33.88 67.065 0 
1054 1 35.09 69.1608 0 
1055 1 36.3 67.065 0 
1056 1 37.51 69.1608 0 
1057 1 38.72 67.065 0 
1058 1 39.93 69.1608 0 
1059 1 41.14 67.065 0 
1060 1 42.35 69.1608 0 
1061 1 43.56 67.065 0 
1062 1 44.77 69.1608 0 
1063 1 45.98 67.065 0 
1064 1 47.19 69.1608 0 
1065 1 48.4 67.065 0 
1066 1 49.61 69.1608 0 
1067 1 50.82 67.065 0 
1068 1 52.03 69.1608 0 
1069 1 53.24 67.065 0 
1070 1 54.45 69.1608 0 
1071 1 55.66 67.065 0 
1072 1 56.87 69.1608 0 
1073 1 58.08 67.065 0 
1074 1 59.29 69.1608 0 
1075 1 60.5 67.065 0 
1076 1 61.71 69.1608 0 
1077 1 62.92 67.065 0 
1078 1 64.13 69.1608 0 
1079 1 65.34 67.065 0 
1080 1 66.55 69.1608 0 
1081 1 67.76 67.065 0 
1082 1 68.97 69.1608 0 
1083 1 70.18 67.065 0 
1084 1 71.39 69.1608 0 
1085 1 72.6 67.065 0 
1086 1 73.81 69.1608 0 
1087 1 75.02 67.065 0 
1088 1 76.23 69.1608 0 
1089 1 0 71.2566 0 
1090 1 1.21 73.3524 0 
1091 1 2.42 71.2566 0 
1092 1 3.63 73.3524 0 
1093 1 4.84 71.2566 0 
1094 1 6.05 73.3524 0 
1095 1 7.26 71.2566 0 
1096 1 8.47 73.3524 0 
1097 1 9.68 71.2566 0 
1098 1 10.89 73.3524 0 
1099 1 12.1 71.2566 0 
1100 1 13.31 73.3524 0 
1101 1 14.52 71.2566 0 
1102 1 15.73 73.3524 0 
1103 1 16.94 71.2566 0 
1104 1 18.15 73.3524 0 
1105 1 19.36 71.2566 0 
1106 1 20.57 73.3524 0 
1107 1 21.78 71.2566 0 
1108 1 22.99 73.3524 0 
1109 1 24.2 71.2566 0 
1110 1 25.41 73.3524 0 
1111 1 26.62 71.2566 0 
1112 1 27.83 73.3524 0 
1113 1 29.04 71.2566 0 
1114 1 30.25 73.3524 0 
1115 1 31.46 71.2566 0 
1116 1 32.67 73.3524 0 
1117 1 33.88 71.2566 0 
1118 1 35.09 73.3524 0 
1119 1 36.3 71.2566 0 
1120 1 37.51 73.3524 0 
1121 1 38.72 71.2566 0 
1122 1 39.93 73.3524 0 
1123 1 41.14 71.2566 0 
1124 1 42.35 73.3524 0 
1125 1 43.56 71.2566 0 
1126 1 44.77 73.3524 0 
1127 1 45.98 71.2566 0 
1128 1 47.19 73.3524 0 
1129 1 48.4 71.2566 0 
1130 1 49.61 73.3524 0 
1131 1 50.82 71.2566 0 
1132 1 52.03 73.3524 0 
1133 1 53.24 71.2566 0 
1134 1 54.45 73.3524 0 
1135 1 55.66 71.2566 0 
1136 1 56.87 73.3524 0 
1137 1 58.08 71.2566 0 
1138 1 59.29 73.3524 0 
1139 1 60.5 71.2566 0 
1140 1 61.71 73.3524 0 
1141 1 62.92 71.2566 0 
1142 1 64.13 73.3524 0 
1143 1 65.34 71.2566 0 
1144 1 66.55 73.3524 0 
1145 1 67.76 71.2566 0 
1146 1 68.97 73.3524 0 
1147 1 70.18 71.2566 0 
1148 1 71.39 73.3524 0 
1149 1 72.6 71.2566 0 
1150 1 73.81 73.3524 0 
1151 1 75.02 71.2566 0 
1152 1 76.23 73.3524 0 
1153 1 0 75.4481 0 
1154 1 1.21 77.5439 0 
1155 1 2.42 75.4481 0 
1156 1 3.63 77.5439 0 
1157 1 4.84 75.4481 0 
1158 1 6.05 77.5439 0 
1159 1 7.26 75.4481 0 
1160 1 8.47 77.5439 0 
1161 1 9.68 75.4481 0 
1162 1 10.89 77.5439 0 
1163 1 12.1 75.4481 0 
1164 1 13.31 77.5439 0 
1165 1 14.52 75.4481 0 
1166 1 15.73 77.5439 0 
1167 1 16.94 75.4481 0 
1168 1 18.15 77.5439 0 
1169 1 19.36 75.4481 0 
1170 1 20.57 77.5439 0 
1171 1 21.78 75.4481 0 
1172 1 22.99 77.5439 0 
1173 1 24.2 75.4481 0 
1174 1 25.41 77.5439 0 
1175 1 26.62 75.4481 0 
1176 1 27.83 77.5439 0 
1177 1 29.04 75.4481 0 
1178 1 30.25 77.5439 0 
1179 1 31.46 75.4481 0 
1180 1 32.67 77.5439 0 
1181 1 33.88 75.4481 0 
1182 1 35.09 77.5439 0 
1183 1 36.3 75.4481 0 
1184 1 37.51 77.5439 0 
1185 1 38.72 75.4481 0 
1186 1 39.93 77.5439 0 
1187 1 41.14 75.4481 0 
1188 1 42.35 77.5439 0 
1189 1 43.56 75.4481 0 
1190 1 44.77 77.5439 0 
1191 1 45.98 75.4481 0 
1192 1 47.19 77.5439 0 
1193 1 48.4 75.4481 0 
1194 1 49.61 77.5439 0 
1195 1 50.82 75.4481 0 
1196 1 52.03 77.5439 0 
1197 1 53.24 75.4481 0 
1198 1 54.45 77.5439 0 
1199 1 55.66 75.4481 0 
1200 1 56.87 77.5439 0 
1201 1 58.08 75.4481 0 
1202 1 59.29 77.5439 0 
1203 1 60.5 75.4481 0 
1204 1 61.71 77.5439 0 
1205 1 62.92 75.4481 0 
1206 1 64.13 77.5439 0 
1207 1 65.34 75.4481 0 
1208 1 66.55 77.5439 0 
1209 1 67.76 75.4481 0 
1210 1 68.97 77.5439 0 
1211 1 70.18 75.4481 0 
1212 1 71.39 77.5439 0 
1213 1 72.6 75.4481 0 
1214 1 73.81 77.5439 0 
1215 1 75.02 75.4481 0 
1216 1 76.23 77.5439 0 
1217 1 0 79.6397 0 
1218 1 1.21 81.7355 0 
1219 1 2.42 79.6397 0 
1220 1 3.63 81.7355 0 
1221 1 4.84 79.6397 0 
1222 1 6.05 81.7355 0 
1223 1 7.26 79.6397 0 
1224 1 8.47 81.7355 0 
1225 1 9.68 79.6397 0 
1226 1 10.89 81.7355 0 
1227 1 12.1 79.6397 0 
1228 1 13.31 81.7355 0 
1229 1 14.52 79.6397 0 
1230 1 15.73 81.7355 0 
1231 1 16.94 79.6397 0 
1232 1 18.15 81.7355 0 
1233 1 19.36 79.6397 0 
1234 1 20.57 81.7355 0 
1235 1 21.78 79.6397 0 
1236 1 22.99 81.7355 0 
1237 1 24.2 79.6397 0 
1238 1 25.41 81.7355 0 
1239 1 26.62 79.6397 0 
1240 1 27.83 81.7355 0 
1241 1 29.04 79.6397 0 
1242 1 30.25 81.7355 0 
1243 1 31.46 79.6397 0 
1244 1 32.67 81.7355 0 
1245 1 33.88 79.6397 0 
1246 1 35.09 81.7355 0 
1247 1 36.3 79.6397 0 
1248 1 37.51 81.7355 0 
1249 1 38.72 79.6397 0 
1250 1 39.93 81.7355 0 
1251 1 41.14 79.6397 0 
1252 1 42.35 81.7355 0 
1253 1 43.56 79.6397 0 
1254 1 44.77 81.7355 0 
1255 1 45.98 79.6397 0 
1256 1 47.19 81.7355 0 
1257 1 48.4 79.6397 0 
1258 1 49.61 81.7355 0 
1259 1 50.82 79.6397 0 
1260 1 52.03 81.7355 0 
1261 1 53.24 79.6397 0 
1262 1 54.45 81.7355 0 
1263 1 55.66 79.6397 0 
1264 1 56.87 81.7355 0 
1265 1 58.08 79.6397 0 
1266 1 59.29 81.7355 0 
1267 1 60.5 79.6397 0 
1268 1 61.71 81.7355 0 
1269 1 62.92 79.6397 0 
1270 1 64.13 81.7355 0 
1271 1 65.34 79.6397 0 
1272 1 66.55 81.7355 0 
1273 1 67.76 79.6397 0 
1274 1 68.97 81.7355 0 
1275 1 70.18 79.6397 0 
1276 1 71.39 81.7355 0 
1277 1 72.6 79.6397 0 
1278 1 73.81 81.7355 0 
1279 1 75.02 79.6397 0 
1280 1 76.23 81.7355 0 
1281 1 0 83.8313 0 
1282 1 1.21 85.927 0 
1283 1 2.42 83.8313 0 
1284 1 3.63 85.927 0 
1285 1 4.84 83.8313 0 
1286 1 6.05 85.927 0 
1287 1 7.26 83.8313 0 
1288 1 8.47 85.927 0 
1289 1 9.68 83.8313 0 
1290 1 10.89 85.927 0 
1291 1 12.1 83.8313 0 
1292 1 13.31 85.927 0 
1293 1 14.52 83.8313 0 
1294 1 15.73 85.927 0 
1295 1 16.94 83.8313 0 
1296 1 18.15 85.927 0 
1297 1 19.36 83.8313 0 
1298 1 20.57 85.927 0 
1299 1 21.78 83.8313 0 
1300 1 22.99 85.927 0 
1301 1 24.2 83.8313 0 
1302 1 25.41 85.927 0 
1303 1 26.62 83.8313 0 
1304 1 27.83 85.927 0 
1305 1 29.04 83.8313 0 
1306 1 30.25 85.927 0 
1307 1 31.46 83.8313 0 
1308 1 32.67 85.927 0 
1309 1 33.88 83.8313 0 
1310 1 35.09 85.927 0 
1311 1 36.3 83.8313 0 
1312 1 37.51 85.927 0 
1313 1 38.72 83.8313 0 
1314 1 39.93 85.927 0 
1315 1 41.14 83.8313 0 
1316 1 42.35 85.927 0 
1317 1 43.56 83.8313 0 
1318 1 44.77 85.927 0 
1319 1 45.98 83.8313 0 
1320 1 47.19 85.927 0 
1321 1 48.4 83.8313 0 
1322 1 49.61 85.927 0 
1323 1 50.82 83.8313 0 
1324 1 52.03 85.927 0 
1325 1 53.24 83.8313 0 
1326 1 54.45 85.927 0 
1327 1 55.66 83.8313 0 
1328 1 56.87 85.927 0 
1329 1 58.08 83.8313 0 
1330 1 59.29 85.927 0 
1331 1 60.5 83.8313 0 
1332 1 61.71 85.927 0 
1333 1 62.92 83.8313 0 
1334 1 64.13 85.927 0 
1335 1 65.34 83.8313 0 
1336 1 66.55 85.927 0 
1337 1 67.76 83.8313 0 
1338 1 68.97 85.927 0 
1339 1 70.18 83.8313 0 
1340 1 71.39 85.927 0 
1341 1 72.6 83.8313 0 
1342 1 73.81 85.927 0 
1343 1 75.02 83.8313 0 
1344 1 76.23 85.927 0 
1345 1 0 88.0228 0 
1346 1 1.21 90.1186 0 
1347 1 2.42 88.0228 0 
1348 1 3.63 90.1186 0 
1349 1 4.84 88.0228 0 
1350 1 6.05 90.1186 0 
1351 1 7.26 88.0228 0 
1352 1 8.47 90.1186 0 
1353 1 9.68 88.0228 0 
1354 1 10.89 90.1186 0 
1355 1 12.1 88.0228 0 
1356 1 13.31 90.1186 0 
1357 1 14.52 88.0228 0 
1358 1 15.73 90.1186 0 
1359 1 16.94 88.0228 0 
1360 1 18.15 90.1186 0 
1361 1 19.36 88.0228 0 
1362 1 20.57 90.1186 0 
1363 1 21.78 88.0228 0 
1364 1 22.99 90.1186 0 
1365 1 24.2 88.0228 0 
1366 1 25.41 90.1186 0 
1367 1 26.62 88.0228 0 
1368 1 27.83 90.1186 0 
1369 1 29.04 88.0228 0 
1370 1 30.25 90.1186 0 
1371 1 31.46 88.0228 0 
1372 1 32.67 90.1186 0 
1373 1 33.88 88.0228 0 
1374 1 35.09 90.1186 0 
1375 1 36.3 88.0228 0 
1376 1 37.51 90.1186 0 
1377 1 38.72 88.0228 0 
1378 1 39.93 90.1186 0 
1379 1 41.14 88.0228 0 
1380 1 42.35 90.1186 0 
1381 1 43.56 88.0228 0 
1382 1 44.77 90.1186 0 
1383 1 45.98 88.0228 0 
1384 1 47.19 90.1186 0 
1385 1 48.4 88.0228 0 
1386 1 49.61 90.1186 0 
1387 1 50.82 88.0228 0 
1388 1 52.03 90.1186 0 
1389 1 53.24 88.0228 0 
1390 1 54.45 90.1186 0 
1391 1 55.66 88.0228 0 
1392 1 56.87 90.1186 0 
1393 1 58.08 88.0228 0 
1394 1 59.29 90.1186 0 
1395 1 60.5 88.0228 0 
1396 1 61.71 90.1186 0 
1397 1 62.92 88.0228 0 
1398 1 64.13 90.1186 0 
1399 1 65.34 88.0228 0 
1400 1 66.55 90.1186 0 
1401 1 67.76 88.0228 0 
1402 1 68.97 90.1186 0 
1403 1 70.18 88.0228 0 
1404 1 71.39 90.1186 0 
1405 1 72.6 88.0228 0 
1406 1 73.81 90.1186 0 
1407 1 75.02 88.0228 0 
1408 1 76.23 90.1186 0 
1409 1 0 92.2144 0 
1410 1 1.21 94.3102 0 
1411 1 2.42 92.2144 0 
1412 1 3.63 94.3102 0 
1413 1 4.84 92.2144 0 
1414 1 6.05 94.3102 0 
1415 1 7.26 92.2144 0 
1416 1 8.47 94.3102 0 
1417 1 9.68 92.2144 0 
1418 1 10.89 94.3102 0 
1419 1 12.1 92.2144 0 
1420 1 13.31 94.3102 0 
1421 1 14.52 92.2144 0 
1422 1 15.73 94.3102 0 
1423 1 16.94 92.2144 0 
1424 1 18.15 94.3102 0 
1425 1 19.36 92.2144 0 
1426 1 20.57 94.3102 0 
1427 1 21.78 92.2144 0 
1428 1 22.99 94.3102 0 
1429 1 24.2 92.2144 0 
1430 1 25.41 94.3102 0 
1431 1 26.62 92.2144 0 
1432 1 27.83 94.3102 0 
1433 1 29.04 92.2144 0 
1434 1 30.25 94.3102 0 
1435 1 31.46 92.2144 0 
1436 1 32.67 94.3102 0 
1437 1 33.88 92.2144 0 
1438 1 35.09 94.3102 0 
1439 1 36.3 92.2144 0 
1440 1 37.51 94.3102 0 
1441 1 38.72 92.2144 0 
1442 1 39.93 94.3102 0 
1443 1 41.14 92.2144 0 
1444 1 42.35 94.3102 0 
1445 1 43.56 92.2144 0 
1446 1 44.77 94.3102 0 
1447 1 45.98 92.2144 0 
1448 1 47.19 94.3102 0 
1449 1 48.4 92.2144 0 
1450 1 49.61 94.3102 0 
1451 1 50.82 92.2144 0 
1452 1 52.03 94.3102 0 
1453 1 53.24 92.2144 0 
1454 1 54.45 94.3102 0 
1455 1 55.66 92.2144 0 
1456 1 56.87 94.3102 0 
1457 1 58.08 92.2144 0 
1458 1 59.29 94.3102 0 
1459 1 60.5 92.2144 0 
1460 1 61.71 94.3102 0 
1461 1 62.92 92.2144 0 
1462 1 64.13 94.3102 0 
1463 1 65.34 92.2144 0 
1464 1 66.55 94.3102 0 
1465 1 67.76 92.2144 0 
1466 1 68.97 94.3102 0 
1467 1 70.18 92.2144 0 
1468 1 71.39 94.3102 0 
1469 1 72.6 92.2144 0 
1470 1 73.81 94.3102 0 
1471 1 75.02 92.2144 0 
1472 1 76.23 94.3102 0 
1473 3 0 96.4059 0 
1474 3 1.21 98.5017 0 
1475 3 2.42 96.4059 0 
1476 3 3.63 98.5017 0 
1477 3 4.84 96.4059 0 
1478 3 6.05 98.5017 0 
1479 3 7.26 96.4059 0 
1480 3 8.47 98.5017 0 
1481 3 9.68 96.4059 0 
1482 3 10.89 98.5017 0 
1483 3 12.1 96.4059 0 
1484 3 13.31 98.5017 0 
1485 3 14.52 96.4059 0 
1486 3 15.73 98.5017 0 
1487 3 16.94 96.4059 0 
1488 3 18.15 98.5017 0 
1489 3 19.36 96.4059 0 
1490 3 20.57 98.5017 0 
1491 3 21.78 96.4059 0 
1492 3 22.99 98.5017 0 
1493 3 24.2 96.4059 0 
1494 3 25.41 98.5017 0 
1495 3 26.62 96.4059 0 
1496 3 27.83 98.5017 0 
1497 3 29.04 96.4059 0 
1498 3 30.25 98.5017 0 
1499 3 31.46 96.4059 0 
1500 3 32.67 98.5017 0 
1501 3 33.88 96.4059 0 
1502 3 35.09 98.5017 0 
1503 3 36.3 96.4059 0 
1504 3 37.51 98.5017 0 
1505 3 38.72 96.4059 0 
1506 3 39.93 98.5017 0 
1507 3 41.14 96.4059 0 
1508 3 42.35 98.5017 0 
1509 3 43.56 96.4059 0 
1510 3 44.77 98.5017 0 
1511 3 45.98 96.4059 0 
1512 3 47.19 98.5017 0 
1513 3 48.4 96.4059 0 
1514 3 49.61 98.5017 0 
1515 3 50.82 96.4059 0 
1516 3 52.03 98.5017 0 
1517 3 53.24 96.4059 0 
1518 3 54.45 98.5017 0 
1519 3 55.66 96.4059 0 
1520 3 56.87 98.5017 0 
1521 3 58.08 96.4059 0 
1522 3 59.29 98.5017 0 
1523 3 60.5 96.4059 0 
1524 3 61.71 98.5017 0 
1525 3 62.92 96.4059 0 
1526 3 64.13 98.5017 0 
1527 3 65.34 96.4059 0 
1528 3 66.55 98.5017 0 
1529 3 67.76 96.4059 0 
1530 3 68.97 98.5017 0 
1531 3 70.18 96.4059 0 
1532 3 71.39 98.5017 0 
1533 3 72.6 96.4059 0 
1534 3 73.81 98.5017 0 
1535 3 75.02 96.4059 0 
1536 3 76.23 98.5017 0 
ITEM: TIMESTEP
1 2.07248e+10
ITEM: NUMBER OF ATOMS
1536
ITEM: BOX BOUNDS
0 77.44
0 100.598
-1.21 1.21
ITEM: ATOMS id type x y z
1 2 0 0 0 
2 2 1.21 2.09578 0 
3 2 2.42 0 0 
4 2 3.63 2.09578 0 
5 2 4.84 0 0 
6 2 6.05 2.09578 0 
7 2 7.26 0 0 
8 2 8.47 2.09578 0 
9 2 9.68 0 0 
10 2 10.89 2.09578 0 
11 2 12.1 0 0 
12 2 13.31 2.09578 0 
13 2 14.52 0 0 
14 2 15.73 2.09578 0 
15 2 16.94 0 0 
16 2 18.15 2.09578 0 
17 2 19.36 0 0 
18 2 20.57 2.09578 0 
19 2 21.78 0 0 
20 2 22.99 2.09578 0 
21 2 24.2 0 0 
22 2 25.41 2.09578 0 
23 2 26.62 0 0 
24 2 27.83 2.09578 0 
25 2 29.04 0 0 
26 2 30.25 2.09578 0 
27 2 31.46 0 0 
28 2 32.67 2.09578 0 
29 2 33.88 0 0 
30 2 35.09 2.09578 0 
31 2 36.3 0 0 
32 2 37.51 2.09578 0 
33 2 38.72 0 0 
34 2 39.93 2.09578 0 
35 2 41.14 0 0 
36 2 42.35 2.09578 0 
37 2 43.56 0 0 
38 2 44.77 2.09578 0 
39 2 45.98 0 0 
40 2 47.19 2.09578 0 
41 2 48.4 0 0 
42 2 49.61 2.09578 0 
43 2 50.82 0 0 
44 2 52.03 2.09578 0 
45 2 53.24 0 0 
46 2 54.45 2.09578 0 
47 2 55.66 0 0 
48 2 56.87 2.09578 0 
49 2 58.08 0 0 
50 2 59.29 2.09578 0 
51 2 60.5 0 0 
52 2 61.71 2.09578 0 
53 2 62.92 0 0 
54 2 64.13 2.09578 0 
55 2 65.34 0 0 
56 2 66.55 2.09578 0 
57 2 67.76 0 0 
58 2 68.97 2.09578 0 
59 2 70.18 0 0 
60 2 71.39 2.09578 0 
61 2 72.6 0 0 
62 2 73.81 2.09578 0 
63 2 75.02 0 0 
64 2 76.23 2.09578 0 
65 2 0 4.19156 0 
66 2 1.21 6.28734 0 
67 2 2.42 4.19156 0 
68 2 3.63 6.28734 0 
69 2 4.84 4.19156 0 
70 1 6.05 6.28734 0 
71 2 7.26 4.19156 0 
72 2 8.47 6.28734 0 
73 2 9.68 4.19156 0 
74 2 10.89 6.28734 0 
75 2 12.1 4.19156 0 
76 2 13.31 6.28734 0 
77 2 14.52 4.19156 0 
78 2 15.73 6.28734 0 
79 2 16.94 4.19156 0 
80 2 18.15 6.28734 0 
81 2 19.36 4.19156 0 
82 2 20.57 6.28734 0 
83 2 21.78 4.19156 0 
84 2 22.99 6.28734 0 
85 2 24.2 4.19156 0 
86 2 25.41 6.28734 0 
87 2 26.62 4.19156 0 
88 2 27.83 6.28734 0 
89 2 29.04 4.19156 0 
90 2 30.25 6.28734 0 
91 2 31.46 4.19156 0 
92 2 32.67 6.28734 0 
93 2 33.88 4.19156 0 
94 2 35.09 6.28734 0 
95 2 36.3 4.19156 0 
96 2 37.51 6.28734 0 
97 2 38.72 4.19156 0 
98 2 39.93 6.28734 0 
99 2 41.14 4.19156 0 
100 2 42.35 6.28734 0 
101 2 43.56 4.19156 0 
102 2 44.77 6.28734 0 
103 2 45.98 4.19156 0 
104 2 47.19 6.28734 0 
105 2 48.4 4.19156 0 
106 2 49.61 6.28734 0 
107 2 50.82 4.19156 0 
108 2 52.03 6.28734 0 
109 2 53.24 4.19156 0 
110 2 54.45 6.28734 0 
111 2 55.66 4.19156 0 
112 2 56.87 6.28734 0 
113 2 58.08 4.19156 0 
114 1 59.29 6.28734 0 
115 2 60.5 4.19156 0 
116 1 61.71 6.28734 0 
117 2 62.92 4.19156 0 
118 1 64.13 6.28734 0 
119 2 65.34 4.19156 0 
120 2 66.55 6.28734 0 
121 2 67.76 4.19156 0 
122 2 68.97 6.28734 0 
123 2 70.18 4.19156 0 
124 2 71.39 6.28734 0 
125 2 72.6 4.19156 0 
126 2 73.81 6.28734 0 
127 2 75.02 4.19156 0 
128 2 76.23 6.28734 0 
129 1 0 8.38313 0 
130 1 1.21 10.4789 0 
131 1 2.42 8.38313 0 
132 1 3.63 10.4789 0 
133 1 4.84 8.38313 0 
134 1 6.05 10.4789 0 
135 1 7.26 8.38313 0 
136 1 8.47 10.4789 0 
137 2 9.68 8.38313 0 
138 1 10.89 10.4789 0 
139 2 12.1 8.38313 0 
140 1 13.31 10.4789 0 
141 2 14.52 8.38313 0 
142 1 15.73 10.4789 0 
143 1 16.94 8.38313 0 
144 1 18.15 10.4789 0 
145 1 19.36 8.38313 0 
146 1 20.57 10.4789 0 
147 1 21.78 8.38313 0 
148 1 22.99 10.4789 0 
149 1 24.2 8.38313 0 
150 1 25.41 10.4789 0 
151 1 26.62 8.38313 0 
152 1 27.83 10.4789 0 
153 1 29.04 8.38313 0 
154 1 30.25 10.4789 0 
155 2 31.46 8.38313 0 
156 2 32.67 10.4789 0 
157 2 33.88 8.38313 0 
158 1 35.09 10.4789 0 
159 1 36.3 8.38313 0 
160 1 37.51 10.4789 0 
161 2 38.72 8.38313 0 
162 2 39.93 10.4789 0 
163 2 41.14 8.38313 0 
164 1 42.35 10.4789 0 
165 1 43.56 8.38313 0 
166 1 44.77 10.4789 0 
167 2 45.98 8.38313 0 
168 1 47.19 10.4789 0 
169 2 48.4 8.38313 0 
170 1 49.61 10.4789 0 
171 2 50.82 8.38313 0 
172 1 52.03 10.4789 0 
173 1 53.24 8.38313 0 
174 1 54.45 10.4789 0 
175 1 55.66 8.38313 0 
176 1 56.87 10.4789 0 
177 1 58.08 8.38313 0 
178 1 59.29 10.4789 0 
179 1 60.5 8.38313 0 
180 1 61.71 10.4789 0 
181 1 62.92 8.38313 0 
182 1 64.13 10.4789 0 
183 1 65.34 8.38313 0 
184 1 66.55 10.4789 0 
185 1 67.76 8.38313 0 
186 1 68.97 10.4789 0 
187 1 70.18 8.38313 0 
188 1 71.39 10.4789 0 
189 1 72.6 8.38313 0 
190 1 73.81 10.4789 0 
191 2 75.02 8.38313 0 
192 1 76.23 10.4789 0 
193 1 0 12.5747 0 
194 1 1.21 14.6705 0 
195 1 2.42 12.5747 0 
196 1 3.63 14.6705 0 
197 1 4.84 12.5747 0 
198 1 6.05 14.6705 0 
199 1 7.26 12.5747 0 
200 1 8.47 14.6705 0 
201 1 9.68 12.5747 0 
202 1 10.89 14.6705 0 
203 1 12.1 12.5747 0 
204 1 13.31 14.6705 0 
205 1 14.52 12.5747 0 
206 1 15.73 14.6705 0 
207 1 16.94 12.5747 0 
208 1 18.15 14.6705 0 
209 1 19.36 12.5747 0 
210 1 20.57 14.6705 0 
211 1 21.78 12.5747 0 
212 1 22.99 14.6705 0 
213 1 24.2 12.5747 0 
214 1 25.41 14.6705 0 
215 1 26.62 12.5747 0 
216 1 27.83 14.6705 0 
217 1 29.04 12.5747 0 
218 1 30.25 14.6705 0 
219 1 31.46 12.5747 0 
220 1 32.67 14.6705 0 
221 1 33.88 12.5747 0 
222 1 35.09 14.6705 0 
223 1 36.3 12.5747 0 
224 1 37.51 14.6705 0 
225 1 38.72 12.5747 0 
226 1 39.93 14.6705 0 
227 1 41.14 12.5747 0 
228 1 42.35 14.6705 0 
229 1 43.56 12.5747 0 
230 1 44.77 14.6705 0 
231 1 45.98 12.5747 0 
232 1 47.19 14.6705 0 
233 1 48.4 12.5747 0 
234 1 49.61 14.6705 0 
235 1 50.82 12.5747 0 
236 1 52.03 14.6705 0 
237 1 53.24 12.5747 0 
238 1 54.45 14.6705 0 
239 1 55.66 12.5747 0 
240 1 56.87 14.6705 0 
241 1 58.08 12.5747 0 
242 1 59.29 14.6705 0 
243 1 60.5 12.5747 0 
244 1 61.71 14.6705 0 
245 1 62.92 12.5747 0 
246 1 64.13 14.6705 0 
247 1 65.34 12.5747 0 
248 1 66.55 14.6705 0 
249 1 67.76 12.5747 0 
250 1 68.97 14.6705 0 
251 1 70.18 12.5747 0 
252 1 71.39 14.6705 0 
253 1 72.6 12.5747 0 
254 1 73.81 14.6705 0 
255 1 75.02 12.5747 0 
256 1 76.23 14.6705 0 
257 1 0 16.7663 0 
258 1 1.21 18.862 0 
259 1 2.42 16.7663 0 
260 1 3.63 18.862 0 
261 1 4.84 16.7663 0 
262 1 6.05 18.862 0 
263 1 7.26 16.7663 0 
264 1 8.47 18.862 0 
265 1 9.68 16.7663 0 
266 1 10.89 18.862 0 
267 1 12.1 16.7663 0 
268 1 13.31 18.862 0 
269 1 14.52 16.7663 0 
270 1 15.73 18.862 0 
271 1 16.94 16.7663 0 
272 1 18.15 18.862 0 
273 1 19.36 16.7663 0 
274 1 20.57 18.862 0 
275 1 21.78 16.7663 0 
276 1 22.99 18.862 0 
277 1 24.2 16.7663 0 
278 1 25.41 18.862 0 
279 1 26.62 16.7663 0 
280 1 27.83 18.862 0 
281 1 29.04 16.7663 0 
282 1 30.25 18.862 0 
283 1 31.46 16.7663 0 
284 1 32.67 18.862 0 
285 1 33.88 16.7663 0 
286 1 35.09 18.862 0 
287 1 36.3 16.7663 0 
288 1 37.51 18.862 0 
289 1 38.72 16.7663 0 
290 1 39.93 18.862 0 
291 1 41.14 16.7663 0 
292 1 42.35 18.862 0 
293 1 43.56 16.7663 0 
294 1 44.77 18.862 0 
295 1 45.98 16.7663 0 
296 1 47.19 18.862 0 
297 1 48.4 16.7663 0 
298 1 49.61 18.862 0 
299 1 50.82 16.7663 0 
300 1 52.03 18.862 0 
301 1 53.24 16.7663 0 
302 1 54.45 18.862 0 
303 1 55.66 16.7663 0 
304 1 56.87 18.862 0 
305 1 58.08 16.7663 0 
306 1 59.29 18.862 0 
307 1 60.5 16.7663 0 
308 1 61.71 18.862 0 
309 1 62.92 16.7663 0 
310 1 64.13 18.862 0 
311 1 65.34 16.7663 0 
312 1 66.55 18.862 0 
313 1 67.76 16.7663 0 
314 1 68.97 18.862 0 
315 1 70.18 16.7663 0 
316 1 71.39 18.862 0 
317 1 72.6 16.7663 0 
318 1 73.81 18.862 0 
319 1 75.02 16.7663 0 
320 1 76.23 18.862 0 
321 1 0 20.9578 0 
322 1 1.21 23.0536 0 
323 1 2.42 20.9578 0 
324 1 3.63 23.0536 0 
325 1 4.84 20.9578 0 
326 1 6.05 23.0536 0 
327 1 7.26 20.9578 0 
328 1 8.47 23.0536 0 
329 1 9.68 20.9578 0 
330 1 10.89 23.0536 0 
331 1 12.1 20.9578 0 
332 1 13.31 23.0536 0 
333 1 14.52 20.9578 0 
334 1 15.73 23.0536 0 
335 1 16.94 20.9578 0 
336 1 18.15 23.0536 0 
337 1 19.36 20.9578 0 
338 1 20.57 23.0536 0 
339 1 21.78 20.9578 0 
340 1 22.99 23.0536 0 
341 1 24.2 20.9578 0 
342 1 25.41 23.0536 0 
343 1 26.62 20.9578 0 
344 1 27.83 23.0536 0 
345 1 29.04 20.9578 0 
346 1 30.25 23.0536 0 
347 1 31.46 20.9578 0 
348 1 32.67 23.0536 0 
349 1 33.88 20.9578 0 
350 1 35.09 23.0536 0 
351 1 36.3 20.9578 0 
352 1 37.51 23.0536 0 
353 1 38.72 20.9578 0 
354 1 39.93 23.0536 0 
355 1 41.14 20.9578 0 
356 1 42.35 23.0536 0 
357 1 43.56 20.9578 0 
358 1 44.77 23.0536 0 
359 1 45.98 20.9578 0 
360 1 47.19 23.0536 0 
361 1 48.4 20.9578 0 
362 1 49.61 23.0536 0 
363 1 50.82 20.9578 0 
364 1 52.03 23.0536 0 
365 1 53.24 20.9578 0 
366 1 54.45 23.0536 0 
367 1 55.66 20.9578 0 
368 1 56.87 23.0536 0 
369 1 58.08 20.9578 0 
370 1 59.29 23.0536 0 
371 1 60.5 20.9578 0 
372 1 61.71 23.0536 0 
373 1 62.92 20.9578 0 
374 1 64.13 23.0536 0 
375 1 65.34 20.9578 0 
376 1 66.55 23.0536 0 
377 1 67.76 20.9578 0 
378 1 68.97 23.0536 0 
379 1 70.18 20.9578 0 
380 1 71.39 23.0536 0 
381 1 72.6 20.9578 0 
382 1 73.81 23.0536 0 
383 1 75.02 20.9578 0 
384 1 76.23 23.0536 0 
385 1 0 25.1494 0 
386 1 1.21 27.2452 0 
387 1 2.42 25.1494 0 
388 1 3.63 27.2452 0 
389 1 4.84 25.1494 0 
390 1 6.05 27.2452 0 
391 1 7.26 25.1494 0 
392 1 8.47 27.2452 0 
393 1 9.68 25.1494 0 
394 1 10.89 27.2452 0 
395 1 12.1 25.1494 0 
396 1 13.31 27.2452 0 
397 1 14.52 25.1494 0 
398 1 15.73 27.2452 0 
399 1 16.94 25.1494 0 
400 1 18.15 27.2452 0 
401 1 19.36 25.1494 0 
402 1 20.57 27.2452 0 
403 1 21.78 25.1494 0 
404 1 22.99 27.2452 0 
405 1 24.2 25.1494 0 
406 1 25.41 27.2452 0 
407 1 26.62 25.1494 0 
408 1 27.83 27.2452 0 
409 1 29.04 25.1494 0 
410 1 30.25 27.2452 0 
411 1 31.46 25.1494 0 
412 1 32.67 27.2452 0 
413 1 33.88 25.1494 0 
414 1 35.09 27.2452 0 
415 1 36.3 25.1494 0 
416 1 37.51 27.2452 0 
417 1 38.72 25.1494 0 
418 1 39.93 27.2452 0 
419 1 41.14 25.1494 0 
420 1 42.35 27.2452 0 
421 1 43.56 25.1494 0 
422 1 44.77 27.2452 0 
423 1 45.98 25.1494 0 
424 1 47.19 27.2452 0 
425 1 48.4 25.1494 0 
426 1 49.61 27.2452 0 
427 1 50.82 25.1494 0 
428 1 52.03 27.2452 0 
429 1 53.24 25.1494 0 
430 1 54.45 27.2452 0 
431 1 55.66 25.1494 0 
432 1 56.87 27.2452 0 
433 1 58.08 25.1494 0 
434 1 59.29 27.2452 0 
435 1 60.5 25.1494 0 
436 1 61.71 27.2452 0 
437 1 62.92 25.1494 0 
438 1 64.13 27.2452 0 
439 1 65.34 25.1494 0 
440 1 66.55 27.2452 0 
441 1 67.76 25.1494 0 
442 1 68.97 27.2452 0 
443 1 70.18 25.1494 0 
444 1 71.39 27.2452 0 
445 1 72.6 25.1494 0 
446 1 73.81 27.2452 0 
447 1 75.02 25.1494 0 
448 1 76.23 27.2452 0 
449 1 0 29.3409 0 
450 1 1.21 31.4367 0 
451 1 2.42 29.3409 0 
452 1 3.63 31.4367 0 
453 1 4.84 29.3409 0 
454 1 6.05 31.4367 0 
455 1 7.26 29.3409 0 
456 1 8.47 31.4367 0 
457 1 9.68 29.3409 0 
458 1 10.89 31.4367 0 
459 1 12.1 29.3409 0 
460 1 13.31 31.4367 0 
461 1 14.52 29.3409 0 
462 1 15.73 31.4367 0 
463 1 16.94 29.3409 0 
464 1 18.15 31.4367 0 
465 1 19.36 29.3409 0 
466 1 20.57 31.4367 0 
467 1 21.78 29.3409 0 
468 1 22.99 31.4367 0 
469 1 24.2 29.3409 0 
470 1 25.41 31.4367 0 
471 1 26.62 29.3409 0 
472 1 27.83 31.4367 0 
473 1 29.04 29.3409 0 
474 1 30.25 31.4367 0 
475 1 31.46 29.3409 0 
476 1 32.67 31.4367 0 
477 1 33.88 29.3409 0 
478 1 35.09 31.4367 0 
479 1 36.3 29.3409 0 
480 1 37.51 31.4367 0 
481 1 38.72 29.3409 0 
482 1 39.93 31.4367 0 
483 1 41.14 29.3409 0 
484 1 42.35 31.4367 0 
485 1 43.56 29.3409 0 
486 1 44.77 31.4367 0 
487 1 45.98 29.3409 0 
488 1 47.19 31.4367 0 
489 1 48.4 29.3409 0 
490 1 49.61 31.4367 0 
491 1 50.82 29.3409 0 
492 1 52.03 31.4367 0 
493 1 53.24 29.3409 0 
494 1 54.45 31.4367 0 
495 1 55.66 29.3409 0 
496 1 56.87 31.4367 0 
497 1 58.08 29.3409 0 
498 1 59.29 31.4367 0 
499 1 60.5 29.3409 0 
500 1 61.71 31.4367 0 
501 1 62.92 29.3409 0 
502 1 64.13 31.4367 0 
503 1 65.34 29.3409 0 
504 1 66.55 31.4367 0 
505 1 67.76 29.3409 0 
506 1 68.97 31.4367 0 
507 1 70.18 29.3409 0 
508 1 71.39 31.4367 0 
509 1 72.6 29.3409 0 
510 1 73.81 31.4367 0 
511 1 75.02 29.3409 0 
512 1 76.23 31.4367 0 
513 1 0 33.5325 0 
514 1 1.21 35.6283 0 
515 1 2.42 33.5325 0 
516 1 3.63 35.6283 0 
517 1 4.84 33.5325 0 
518 1 6.05 35.6283 0 
519 1 7.26 33.5325 0 
520 1 8.47 35.6283 0 
521 1 9.68 33.5325 0 
522 1 10.89 35.6283 0 
523 1 12.1 33.5325 0 
524 1 13.31 35.6283 0 
525 1 14.52 33.5325 0 
526 1 15.73 35.6283 0 
527 1 16.94 33.5325 0 
528 1 18.15 35.6283 0 
529 1 19.36 33.5325 0 
530 1 20.57 35.6283 0 
531 1 21.78 33.5325 0 
532 1 22.99 35.6283 0 
533 1 24.2 33.5325 0 
534 1 25.41 35.6283 0 
535 1 26.62 33.5325 0 
536 1 27.83 35.6283 0 
537 1 29.04 33.5325 0 
538 1 30.25 35.6283 0 
539 1 31.46 33.5325 0 
540 1 32.67 35.6283 0 
541 1 33.88 33.5325 0 
542 1 35.09 35.6283 0 
543 1 36.3 33.5325 0 
544 1 37.51 35.6283 0 
545 1 38.72 33.5325 0 
546 1 39.93 35.6283 0 
547 1 41.14 33.5325 0 
548 1 42.35 35.6283 0 
549 1 43.56 33.5325 0 
550 1 44.77 35.6283 0 
551 1 45.98 33.5325 0 
552 1 47.19 35.6283 0 
553 1 48.4 33.5325 0 
554 1 49.61 35.6283 0 
555 1 50.82 33.5325 0 
556 1 52.03 35.6283 0 
557 1 53.24 33.5325 0 
558 1 54.45 35.6283 0 
559 1 55.66 33.5325 0 
560 1 56.87 35.6283 0 
561 1 58.08 33.5325 0 
562 1 59.29 35.6283 0 
563 1 60.5 33.5325 0 
564 1 61.71 35.6283 0 
565 1 62.92 33.5325 0 
566 1 64.13 35.6283 0 
567 1 65.34 33.5325 0 
568 1 66.55 35.6283 0 
569 1 67.76 33.5325 0 
570 1 68.97 35.6283 0 
571 1 70.18 33.5325 0 
572 1 71.39 35.6283 0 
573 1 72.6 33.5325 0 
574 1 73.81 35.6283 0 
575 1 75.02 33.5325 0 
576 1 76.23 35.6283 0 
577 1 0 37.7241 0 
578 1 1.21 39.8198 0 
579 1 2.42 37.7241 0 
580 1 3.63 39.8198 0 
581 1 4.84 37.7241 0 
582 1 6.05 39.8198 0 
583 1 7.26 37.7241 0 
584 1 8.47 39.8198 0 
585 1 9.68 37.7241 0 
586 1 10.89 39.8198 0 
587 1 12.1 37.7241 0 
588 1 13.31 39.8198 0 
589 1 14.52 37.7241 0 
590 1 15.73 39.8198 0 
591 1 16.94 37.7241 0 
592 1 18.15 39.8198 0 
593 1 19.36 37.7241 0 
594 1 20.57 39.8198 0 
595 1 21.78 37.7241 0 
596 1 22.99 39.8198 0 
597 1 24.2 37.7241 0 
598 1 25.41 39.8198 0 
599 1 26.62 37.7241 0 
600 1 27.83 39.8198 0 
601 1 29.04 37.7241 0 
602 1 30.25 39.8198 0 
603 1 31.46 37.7241 0 
604 1 32.67 39.8198 0 
605 1 33.88 37.7241 0 
606 1 35.09 39.8198 0 
607 1 36.3 37.7241 0 
608 1 37.51 39.8198 0 
609 1 38.72 37.7241 0 
610 1 39.93 39.8198 0 
611 1 41.14 37.7241 0 
612 1 42.35 39.8198 0 
613 1 43.56 37.7241 0 
614 1 44.77 39.8198 0 
615 1 45.98 37.7241 0 
616 1 47.19 39.8198 0 
617 1 48.4 37.7241 0 
618 1 49.61 39.8198 0 
619 1 50.82 37.7241 0 
620 1 52.03 39.8198 0 
621 1 53.24 37.7241 0 
622 1 54.45 39.8198 0 
623 1 55.66 37.7241 0 
624 1 56.87 39.8198 0 
625 1 58.08 37.7241 0 
626 1 59.29 39.8198 0 
627 1 60.5 37.7241 0 
628 1 61.71 39.8198 0 
629 1 62.92 37.7241 0 
630 1 64.13 39.8198 0 
631 1 65.34 37.7241 0 
632 1 66.55 39.8198 0 
633 1 67.76 37.7241 0 
634 1 68.97 39.8198 0 
635 1 70.18 37.7241 0 
636 1 71.39 39.8198 0 
637 1 72.6 37.7241 0 
638 1 73.81 39.8198 0 
639 1 75.02 37.7241 0 
640 1 76.23 39.8198 0 
641 1 0 41.9156 0 
642 1 1.21 44.0114 0 
643 1 2.42 41.9156 0 
644 1 3.63 44.0114 0 
645 1 4.84 41.9156 0 
646 1 6.05 44.0114 0 
647 1 7.26 41.9156 0 
648 1 8.47 44.0114 0 
649 1 9.68 41.9156 0 
650 1 10.89 44.0114 0 
651 1 12.1 41.9156 0 
652 1 13.31 44.0114 0 
653 1 14.52 41.9156 0 
654 1 15.73 44.0114 0 
655 1 16.94 41.9156 0 
656 1 18.15 44.0114 0 
657 1 19.36 41.9156 0 
658 1 20.57 44.0114 0 
659 1 21.78 41.9156 0 
660 1 22.99 44.0114 0 
661 1 24.2 41.9156 0 
662 1 25.41 44.0114 0 
663 1 26.62 41.9156 0 
664 1 27.83 44.0114 0 
665 1 29.04 41.9156 0 
666 1 30.25 44.0114 0 
667 1 31.46 41.9156 0 
668 1 32.67 44.0114 0 
669 1 33.88 41.9156 0 
670 1 35.09 44.0114 0 
671 1 36.3 41.9156 0 
672 1 37.51 44.0114 0 
673 1 38.72 41.9156 0 
674 1 39.93 44.0114 0 
675 1 41.14 41.9156 0 
676 1 42.35 44.0114 0 
677 1 43.56 41.9156 0 
678 1 44.77 44.0114 0 
679 1 45.98 41.9156 0 
680 1 47.19 44.0114 0 
681 1 48.4 41.9156 0 
682 1 49.61 44.0114 0 
683 1 50.82 41.9156 0 
684 1 52.03 44.0114 0 
685 1 53.24 41.9156 0 
686 1 54.45 44.0114 0 
687 1 55.66 41.9156 0 
688 1 56.87 44.0114 0 
689 1 58.08 41.9156 0 
690 1 59.29 44.0114 0 
691 1 60.5 41.9156 0 
692 1 61.71 44.0114 0 
693 1 62.92 41.9156 0 
694 1 64.13 44.0114 0 
695 1 65.34 41.9156 0 
696 1 66.55 44.0114 0 
697 1 67.76 41.9156 0 
698 1 68.97 44.0114 0 
699 1 70.18 41.9156 0 
700 1 71.39 44.0114 0 
701 1 72.6 41.9156 0 
702 1 73.81 44.0114 0 
703 1 75.02 41.9156 0 
704 1 76.23 44.0114 0 
705 1 0 46.1072 0 
706 1 1.21 48.203 0 
707 1 2.42 46.1072 0 
708 1 3.63 48.203 0 
709 1 4.84 46.1072 0 
710 1 6.05 48.203 0 
711 1 7.26 46.1072 0 
712 1 8.47 48.203 0 
713 1 9.68 46.1072 0 
714 1 10.89 48.203 0 
715 1 12.1 46.1072 0 
716 1 13.31 48.203 0 
717 1 14.52 46.1072 0 
718 1 15.73 48.203 0 
719 1 16.94 46.1072 0 
720 1 18.15 48.203 0 
721 1 19.36 46.1072 0 
722 1 20.57 48.203 0 
723 1 21.78 46.1072 0 
724 1 22.99 48.203 0 
725 1 24.2 46.1072 0 
726 1 25.41 48.203 0 
727 1 26.62 46.1072 0 
728 1 27.83 48.203 0 
729 1 29.04 46.1072 0 
730 1 30.25 48.203 0 
731 1 31.46 46.1072 0 
732 1 32.67 48.203 0 
733 1 33.88 46.1072 0 
734 1 35.09 48.203 0 
735 1 36.3 46.1072 0 
736 1 37.51 48.203 0 
737 1 38.72 46.1072 0 
738 1 39.93 48.203 0 
739 1 41.14 46.1072 0 
740 1 42.35 48.203 0 
741 1 43.56 46.1072 0 
742 1 44.77 48.203 0 
743 1 45.98 46.1072 0 
744 1 47.19 48.203 0 
745 1 48.4 46.1072 0 
746 1 49.61 48.203 0 
747 1 50.82 46.1072 0 
748 1 52.03 48.203 0 
749 1 53.24 46.1072 0 
750 1 54.45 48.203 0 
751 1 55.66 46.1072 0 
752 1 56.87 48.203 0 
753 1 58.08 46.1072 0 
754 1 59.29 48.203 0 
755 1 60.5 46.1072 0 
756 1 61.71 48.203 0 
757 1 62.92 46.1072 0 
758 1 64.13 48.203 0 
759 1 65.34 46.1072 0 
760 1 66.55 48.203 0 
761 1 67.76 46.1072 0 
762 1 68.97 48.203 0 
763 1 70.18 46.1072 0 
764 1 71.39 48.203 0 
765 1 72.6 46.1072 0 
766 1 73.81 48.203 0 
767 1 75.02 46.1072 0 
768 1 76.23 48.203 0 
769 1 0 50.2988 0 
770 1 1.21 52.3945 0 
771 1 2.42 50.2988 0 
772 1 3.63 52.3945 0 
773 1 4.84 50.2988 0 
774 1 6.05 52.3945 0 
775 1 7.26 50.2988 0 
776 1 8.47 52.3945 0 
777 1 9.68 50.2988 0 
778 1 10.89 52.3945 0 
779 1 12.1 50.2988 0 
780 1 13.31 52.3945 0 
781 1 14.52 50.2988 0 
782 1 15.73 52.3945 0 
783 1 16.94 50.2988 0 
784 1 18.15 52.3945 0 
785 1 19.36 50.2988 0 
786 1 20.57 52.3945 0 
787 1 21.78 50.2988 0 
788 1 22.99 52.3945 0 
789 1 24.2 50.2988 0 
790 1 25.41 52.3945 0 
791 1 26.62 50.2988 0 
792 1 27.83 52.3945 0 
793 1 29.04 50.2988 0 
794 1 30.25 52.3945 0 
795 1 31.46 50.2988 0 
796 1 32.67 52.3945 0 
797 1 33.88 50.2988 0 
798 1 35.09 52.3945 0 
799 1 36.3 50.2988 0 
800 1 37.51 52.3945 0 
801 1 38.72 50.2988 0 
802 1 39.93 52.3945 0 
803 1 41.14 50.2988 0 
804 1 42.35 52.3945 0 
805 1 43.56 50.2988 0 
806 1 44.77 52.3945 0 
807 1 45.98 50.2988 0 
808 1 47.19 52.3945 0 
809 1 48.4 50.2988 0 
810 1 49.61 52.3945 0 
811 1 50.82 50.2988 0 
812 1 52.03 52.3945 0 
813 1 53.24 50.2988 0 
814 1 54.45 52.3945 0 
815 1 55.66 50.2988 0 
816 1 56.87 52.3945 0 
817 1 58.08 50.2988 0 
818 1 59.29 52.3945 0 
819 1 60.5 50.2988 0 
820 1 61.71 52.3945 0 
821 1 62.92 50.2988 0 
822 1 64.13 52.3945 0 
823 1 65.34 50.2988 0 
824 1 66.55 52.3945 0 
825 1 67.76 50.2988 0 
826 1 68.97 52.3945 0 
827 1 70.18 50.2988 0 
828 1 71.39 52.3945 0 
829 1 72.6 50.2988 0 
830 1 73.81 52.3945 0 
831 1 75.02 50.2988 0 
832 1 76.23 52.3945 0 
833 1 0 54.4903 0 
834 1 1.21 56.5861 0 
835 1 2.42 54.4903 0 
836 1 3.63 56.5861 0 
837 1 4.84 54.4903 0 
838 1 6.05 56.5861 0 
839 1 7.26 54.4903 0 
840 1 8.47 56.5861 0 
841 1 9.68 54.4903 0 
842 1 10.89 56.5861 0 
843 1 12.1 54.4903 0 
844 1 13.31 56.5861 0 
845 1 14.52 54.4903 0 
846 1 15.73 56.5861 0 
847 1 16.94 54.4903 0 
848 1 18.15 56.5861 0 
849 1 19.36 54.4903 0 
850 1 20.57 56.5861 0 
851 1 21.78 54.4903 0 
852 1 22.99 56.5861 0 
853 1 24.2 54.4903 0 
854 1 25.41 56.5861 0 
855 1 26.62 54.4903 0 
856 1 27.83 56.5861 0 
857 1 29.04 54.4903 0 
858 1 30.25 56.5861 0 
859 1 31.46 54.4903 0 
860 1 32.67 56.5861 0 
861 1 33.88 54.4903 0 
862 1 35.09 56.5861 0 
863 1 36.3 54.4903 0 
864 1 37.51 56.5861 0 
865 1 38.72 54.4903 0 
866 1 39.93 56.5861 0 
867 1 41.14 54.4903 0 
868 1 42.35 56.5861 0 
869 1 43.56 54.4903 0 
870 1 44.77 56.5861 0 
871 1 45.98 54.4903 0 
872 1 47.19 56.5861 0 
873 1 48.4 54.4903 0 
874 1 49.61 56.5861 0 
875 1 50.82 54.4903 0 
876 1 52.03 56.5861 0 
877 1 53.24 54.4903 0 
878 1 54.45 56.5861 0 
879 1 55.66 54.4903 0 
880 1 56.87 56.5861 0 
881 1 58.08 54.4903 0 
882 1 59.29 56.5861 0 
883 1 60.5 54.4903 0 
884 1 61.71 56.5861 0 
885 1 62.92 54.4903 0 
886 1 64.13 56.5861 0 
887 1 65.34 54.4903 0 
888 1 66.55 56.5861 0 
889 1 67.76 54.4903 0 
890 1 68.97 56.5861 0 
891 1 70.18 54.4903 0 
892 1 71.39 56.5861 0 
893 1 72.6 54.4903 0 
894 1 73.81 56.5861 0 
895 1 75.02 54.4903 0 
896 1 76.23 56.5861 0 
897 1 0 58.6819 0 
898 1 1.21 60.7777 0 
899 1 2.42 58.6819 0 
900 1 3.63 60.7777 0 
901 1 4.84 58.6819 0 
902 1 6.05 60.7777 0 
903 1 7.26 58.6819 0 
904 1 8.47 60.7777 0 
905 1 9.68 58.6819 0 
906 1 10.89 60.7777 0 
907 1 12.1 58.6819 0 
908 1 13.31 60.7777 0 
909 1 14.52 58.6819 0 
910 1 15.73 60.7777 0 
911 1 16.94 58.6819 0 
912 1 18.15 60.7777 0 
913 1 19.36 58.6819 0 
914 1 20.57 60.7777 0 
915 1 21.78 58.6819 0 
916 1 22.99 60.7777 0 
917 1 24.2 58.6819 0 
918 1 25.41 60.7777 0 
919 1 26.62 58.6819 0 
920 1 27.83 60.7777 0 
921 1 29.04 58.6819 0 
922 1 30.25 60.7777 0 
923 1 31.46 58.6819 0 
924 1 32.67 60.7777 0 
925 1 33.88 58.6819 0 
926 1 35.09 60.7777 0 
927 1 36.3 58.6819 0 
928 1 37.51 60.7777 0 
929 1 38.72 58.6819 0 
930 1 39.93 60.7777 0 
931 1 41.14 58.6819 0 
932 1 42.35 60.7777 0 
933 1 43.56 58.6819 0 
934 1 44.77 60.7777 0 
935 1 45.98 58.6819 0 
936 1 47.19 60.7777 0 
937 1 48.4 58.6819 0 
938 1 49.61 60.7777 0 
939 1 50.82 58.6819 0 
940 1 52.03 60.7777 0 
941 1 53.24 58.6819 0 
942 1 54.45 60.7777 0 
943 1 55.66 58.6819 0 
944 1 56.87 60.7777 0 
945 1 58.08 58.6819 0 
946 1 59.29 60.7777 0 
947 1 60.5 58.6819 0 
948 1 61.71 60.7777 0 
949 1 62.92 58.6819 0 
950 1 64.13 60.7777 0 
951 1 65.34 58.6819 0 
952 1 66.55 60.7777 0 
953 1 67.76 58.6819 0 
954 1 68.97 60.7777 0 
955 1 70.18 58.6819 0 
956 1 71.39 60.7777 0 
957 1 72.6 58.6819 0 
958 1 73.81 60.7777 0 
959 1 75.02 58.6819 0 
960 1 76.23 60.7777 0 
961 1 0 62.8734 0 
962 1 1.21 64.9692 0 
963 1 2.42 62.8734 0 
964 1 3.63 64.9692 0 
965 1 4.84 62.8734 0 
966 1 6.05 64.9692 0 
967 1 7.26 62.8734 0 
968 1 8.47 64.9692 0 
969 1 9.68 62.8734 0 
970 1 10.89 64.9692 0 
971 1 12.1 62.8734 0 
972 1 13.31 64.9692 0 
973 1 14.52 62.8734 0 
974 1 15.73 64.9692 0 
975 1 16.94 62.8734 0 
976 1 18.15 64.9692 0 
977 1 19.36 62.8734 0 
978 1 20.57 64.9692 0 
979 1 21.78 62.8734 0 
980 1 22.99 64.9692 0 
981 1 24.2 62.8734 0 
982 1 25.41 64.9692 0 
983 1 26.62 62.8734 0 
984 1 27.83 64.9692 0 
985 1 29.04 62.8734 0 
986 1 30.25 64.9692 0 
987 1 31.46 62.8734 0 
988 1 32.67 64.9692 0 
989 1 33.88 62.8734 0 
990 1 35.09 64.9692 0 
991 1 36.3 62.8734 0 
992 1 37.51 64.9692 0 
993 1 38.72 62.8734 0 
994 1 39.93 64.9692 0 
995 1 41.14 62.8734 0 
996 1 42.35 64.9692 0 
997 1 43.56 62.8734 0 
998 1 44.77 64.9692 0 
999 1 45.98 62.8734 0 
1000 1 47.19 64.9692 0 
1001 1 48.4 62.8734 0 
1002 1 49.61 64.9692 0 
1003 1 50.82 62.8734 0 
1004 1 52.03 64.9692 0 
1005 1 53.24 62.8734 0 
1006 1 54.45 64.9692 0 
1007 1 55.66 62.8734 0 
1008 1 56.87 64.9692 0 
1009 1 58.08 62.8734 0 
1010 1 59.29 64.9692 0 
1011 1 60.5 62.8734 0 
1012 1 61.71 64.9692 0 
1013 1 62.92 62.8734 0 
1014 1 64.13 64.9692 0 
1015 1 65.34 62.8734 0 
1016 1 66.55 64.9692 0 
1017 1 67.76 62.8734 0 
1018 1 68.97 64.9692 0 
1019 1 70.18 62.8734 0 
1020 1 71.39 64.9692 0 
1021 1 72.6 62.8734 0 
1022 1 73.81 64.9692 0 
1023 1 75.02 62.8734 0 
1024 1 76.23 64.9692 0 
1025 1 0 67.065 0 
1026 1 1.21 69.1608 0 
1027 1 2.42 67.065 0 
1028 1 3.63 69.1608 0 
1029 1 4.84 67.065 0 
1030 1 6.05 69.1608 0 
1031 1 7.26 67.065 0 
1032 1 8.47 69.1608 0 
1033 1 9.68 67.065 0 
1034 1 10.89 69.1608 0 
1035 1 12.1 67.065 0 
1036 1 13.31 69.1608 0 
1037 1 14.52 67.065 0 
1038 1 15.73 69.1608 0 
1039 1 16.94 67.065 0 
1040 1 18.15 69.1608 0 
1041 1 19.36 67.065 0 
1042 1 20.57 69.1608 0 
1043 1 21.78 67.065 0 
1044 1 22.99 69.1608 0 
1045 1 24.2 67.065 0 
1046 1 25.41 69.1608 0 
1047 1 26.62 67.065 0 
1048 1 27.83 69.1608 0 
1049 1 29.04 67.065 0 
1050 1 30.25 69.1608 0 
1051 1 31.46 67.065 0 
1052 1 32.67 69.1608 0 
1053 1 33.88 67.065 0 
1054 1 35.09 69.1608 0 
1055 1 36.3 67.065 0 
1056 1 37.51 69.1608 0 
1057 1 38.72 67.065 0 
1058 1 39.93 69.1608 0 
1059 1 41.14 67.065 0 
1060 1 42.35 69.1608 0 
1061 1 43.56 67.065 0 
1062 1 44.77 69.1608 0 
1063 1 45.98 67.065 0 
1064 1 47.19 69.1608 0 
1065 1 48.4 67.065 0 
1066 1 49.61 69.1608 0 
1067 1 50.82 67.065 0 
1068 1 52.03 69.1608 0 
1069 1 53.24 67.065 0 
1070 1 54.45 69.1608 0 
1071 1 55.66 67.065 0 
1072 1 56.87 69.1608 0 
1073 1 58.08 67.065 0 
1074 1 59.29 69.1608 0 
1075 1 60.5 67.065 0 
1076 1 61.71 69.1608 0 
1077 1 62.92 67.065 0 
1078 1 64.13 69.1608 0 
1079 1 65.34 67.065 0 
1080 1 66.55 69.1608 0 
1081 1 67.76 67.065 0 
1082 1 68.97 69.1608 0 
1083 1 70.18 67.065 0 
1084 1 71.39 69.1608 0 
1085 1 72.6 67.065 0 
1086 1 73.81 69.1608 0 
1087 1 75.02 67.065 0 
1088 1 76.23 69.1608 0 
1089 1 0 71.2566 0 
1090 1 1.21 73.3524 0 
1091 1 2.42 71.2566 0 
1092 1 3.63 73.3524 0 
1093 1 4.84 71.2566 0 
1094 1 6.05 73.3524 0 
1095 1 7.26 71.2566 0 
1096 1 8.47 73.3524 0 
1097 1 9.68 71.2566 0 
1098 1 10.89 73.3524 0 
1099 1 12.1 71.2566 0 
1100 1 13.31 73.3524 0 
1101 1 14.52 71.2566 0 
1102 1 15.73 73.3524 0 
1103 1 16.94 71.2566 0 
1104 1 18.15 73.3524 0 
1105 1 19.36 71.2566 0 
1106 1 20.57 73.3524 0 
1107 1 21.78 71.2566 0 
1108 1 22.99 73.3524 0 
1109 1 24.2 71.2566 0 
1110 1 25.41 73.3524 0 
1111 1 26.62 71.2566 0 
1112 1 27.83 73.3524 0 
1113 1 29.04 71.2566 0 
1114 1 30.25 73.3524 0 
1115 1 31.46 71.2566 0 
1116 1 32.67 73.3524 0 
1117 1 33.88 71.2566 0 
1118 1 35.09 73.3524 0 
1119 1 36.3 71.2566 0 
1120 1 37.51 73.3524 0 
1121 1 38.72 71.2566 0 
1122 1 39.93 73.3524 0 
1123 1 41.14 71.2566 0 
1124 1 42.35 73.3524 0 
1125 1 43.56 71.2566 0 
1126 1 44.77 73.3524 0 
1127 1 45.98 71.2566 0 
1128 1 47.19 73.3524 0 
1129 1 48.4 71.2566 0 
1130 1 49.61 73.3524 0 
1131 1 50.82 71.2566 0 
1132 1 52.03 73.3524 0 
1133 1 53.24 71.2566 0 
1134 1 54.45 73.3524 0 
1135 1 55.66 71.2566 0 
1136 1 56.87 73.3524 0 
1137 1 58.08 71.2566 0 
1138 1 59.29 73.3524 0 
1139 1 60.5 71.2566 0 
1140 1 61.71 73.3524 0 
1141 1 62.92 71.2566 0 
1142 1 64.13 73.3524 0 
1143 1 65.34 71.2566 0 
1144 1 66.55 73.3524 0 
1145 1 67.76 71.2566 0 
1146 1 68.97 73.3524 0 
1147 1 70.18 71.2566 0 
1148 1 71.39 73.3524 0 
1149 1 72.6 71.2566 0 
1150 1 73.81 73.3524 0 
1151 1 75.02 71.2566 0 
1152 1 76.23 73.3524 0 
1153 1 0 75.4481 0 
1154 1 1.21 77.5439 0 
1155 1 2.42 75.4481 0 
1156 1 3.63 77.5439 0 
1157 1 4.84 75.4481 0 
1158 1 6.05 77.5439 0 
1159 1 7.26 75.4481 0 
1160 1 8.47 77.5439 0 
1161 1 9.68 75.4481 0 
1162 1 10.89 77.5439 0 
1163 1 12.1 75.4481 0 
1164 1 13.31 77.5439 0 
1165 1 14.52 75.4481 0 
1166 1 15.73 77.5439 0 
1167 1 16.94 75.4481 0 
1168 1 18.15 77.5439 0 
1169 1 19.36 75.4481 0 
1170 1 20.57 77.5439 0 
1171 1 21.78 75.4481 0 
1172 1 22.99 77.5439 0 
1173 1 24.2 75.4481 0 
1174 1 25.41 77.5439 0 
1175 1 26.62 75.4481 0 
1176 1 27.83 77.5439 0 
1177 1 29.04 75.4481 0 
1178 1 30.25 77.5439 0 
1179 1 31.46 75.4481 0 
1180 1 32.67 77.5439 0 
1181 1 33.88 75.4481 0 
1182 1 35.09 77.5439 0 
1183 1 36.3 75.4481 0 
1184 1 37.51 77.5439 0 
1185 1 38.72 75.4481 0 
1186 1 39.93 77.5439 0 
1187 1 41.14 75.4481 0 
1188 1 42.35 77.5439 0 
1189 1 43.56 75.4481 0 
1190 1 44.77 77.5439 0 
1191 1 45.98 75.4481 0 
1192 1 47.19 77.5439 0 
1193 1 48.4 75.4481 0 
1194 1 49.61 77.5439 0 
1195 1 50.82 75.4481 0 
1196 1 52.03 77.5439 0 
1197 1 53.24 75.4481 0 
1198 1 54.45 77.5439 0 
1199 1 55.66 75.4481 0 
1200 1 56.87 77.5439 0 
1201 1 58.08 75.4481 0 
1202 1 59.29 77.5439 0 
1203 1 60.5 75.4481 0 
1204 1 61.71 77.5439 0 
1205 1 62.92 75.4481 0 
1206 1 64.13 77.5439 0 
1207 1 65.34 75.4481 0 
1208 1 66.55 77.5439 0 
1209 1 67.76 75.4481 0 
1210 1 68.97 77.5439 0 
1211 1 70.18 75.4481 0 
1212 1 71.39 77.5439 0 
1213 1 72.6 75.4481 0 
1214 1 73.81 77.5439 0 
1215 1 75.02 75.4481 0 
1216 1 76.23 77.5439 0 
1217 1 0 79.6397 0 
1218 1 1.21 81.7355 0 
1219 1 2.42 79.6397 0 
1220 1 3.63 81.7355 0 
1221 1 4.84 79.6397 0 
1222 1 6.05 81.7355 0 
1223 1 7.26 79.6397 0 
1224 1 8.47 81.7355 0 
1225 1 9.68 79.6397 0 
1226 1 10.89 81.7355 0 
1227 1 12.1 79.6397 0 
1228 1 13.31 81.7355 0 
1229 1 14.52 79.6397 0 
1230 1 15.73 81.7355 0 
1231 1 16.94 79.6397 0 
1232 1 18.15 81.7355 0 
1233 1 19.36 79.6397 0 
1234 1 20.57 81.7355 0 
1235 1 21.78 79.6397 0 
1236 1 22.99 81.7355 0 
1237 1 24.2 79.6397 0 
1238 1 25.41 81.7355 0 
1239 1 26.62 79.6397 0 
1240 1 27.83 81.7355 0 
1241 1 29.04 79.6397 0 
1242 1 30.25 81.7355 0 
1243 1 31.46 79.6397 0 
1244 1 32.67 81.7355 0 
1245 1 33.88 79.6397 0 
1246 1 35.09 81.7355 0 
1247 1 36.3 79.6397 0 
1248 1 37.51 81.7355 0 
1249 1 38.72 79.6397 0 
1250 1 39.93 81.7355 0 
1251 1 41.14 79.6397 0 
1252 1 42.35 81.7355 0 
1253 1 43.56 79.6397 0 
1254 1 44.77 81.7355 0 
1255 1 45.98 79.6397 0 
1256 1 47.19 81.7355 0 
1257 1 48.4 79.6397 0 
1258 1 49.61 81.7355 0 
1259 1 50.82 79.6397 0 
1260 1 52.03 81.7355 0 
1261 1 53.24 79.6397 0 
1262 1 54.45 81.7355 0 
1263 1 55.66 79.6397 0 
1264 1 56.87 81.7355 0 
1265 1 58.08 79.6397 0 
1266 1 59.29 81.7355 0 
1267 1 60.5 79.6397 0 
1268 1 61.71 81.7355 0 
1269 1 62.92 79.6397 0 
1270 1 64.13 81.7355 0 
1271 1 65.34 79.6397 0 
1272 1 66.55 81.7355 0 
1273 1 67.76 79.6397 0 
1274 1 68.97 81.7355 0 
1275 1 70.18 79.6397 0 
1276 1 71.39 81.7355 0 
1277 1 72.6 79.6397 0 
1278 1 73.81 81.7355 0 
1279 1 75.02 79.6397 0 
1280 1 76.23 81.7355 0 
1281 1 0 83.8313 0 
1282 1 1.21 85.927 0 
1283 1 2.42 83.8313 0 
1284 1 3.63 85.927 0 
1285 1 4.84 83.8313 0 
1286 1 6.05 85.927 0 
1287 1 7.26 83.8313 0 
1288 1 8.47 85.927 0 
1289 1 9.68 83.8313 0 
1290 1 10.89 85.927 0 
1291 1 12.1 83.8313 0 
1292 1 13.31 85.927 0 
1293 1 14.52 83.8313 0 
1294 1 15.73 85.927 0 
1295 1 16.94 83.8313 0 
1296 1 18.15 85.927 0 
1297 1 19.36 83.8313 0 
1298 1 20.57 85.927 0 
1299 1 21.78 83.8313 0 
1300 1 22.99 85.927 0 
1301 1 24.2 83.8313 0 
1302 1 25.41 85.927 0 
1303 1 26.62 83.8313 0 
1304 1 27.83 85.927 0 
1305 1 29.04 83.8313 0 
1306 1 30.25 85.927 0 
1307 1 31.46 83.8313 0 
1308 1 32.67 85.927 0 
1309 1 33.88 83.8313 0 
1310 1 35.09 85.927 0 
1311 1 36.3 83.8313 0 
1312 1 37.51 85.927 0 
1313 1 38.72 83.8313 0 
1314 1 39.93 85.927 0 
1315 1 41.14 83.8313 0 
1316 1 42.35 85.927 0 
1317 1 43.56 83.8313 0 
1318 1 44.77 85.927 0 
1319 1 45.98 83.8313 0 
1320 1 47.19 85.927 0 
1321 1 48.4 83.8313 0 
1322 1 49.61 85.927 0 
1323 1 50.82 83.8313 0 
1324 1 52.03 85.927 0 
1325 1 53.24 83.8313 0 
1326 1 54.45 85.927 0 
1327 1 55.66 83.8313 0 
1328 1 56.87 85.927 0 
1329 1 58.08 83.8313 0 
1330 1 59.29 85.927 0 
1331 1 60.5 83.8313 0 
1332 1 61.71 85.927 0 
1333 1 62.92 83.8313 0 
1334 1 64.13 85.927 0 
1335 1 65.34 83.8313 0 
1336 1 66.55 85.927 0 
1337 1 67.76 83.8313 0 
1338 1 68.97 85.927 0 
1339 1 70.18 83.8313 0 
1340 1 71.39 85.927 0 
1341 1 72.6 83.8313 0 
1342 1 73.81 85.927 0 
1343 1 75.02 83.8313 0 
1344 1 76.23 85.927 0 
1345 1 0 88.0228 0 
1346 1 1.21 90.1186 0 
1347 1 2.42 88.0228 0 
1348 1 3.63 90.1186 0 
1349 1 4.84 88.0228 0 
1350 1 6.05 90.1186 0 
1351 1 7.26 88.0228 0 
1352 1 8.47 90.1186 0 
1353 1 9.68 88.0228 0 
1354 1 10.89 90.1186 0 
1355 1 12.1 88.0228 0 
1356 1 13.31 90.1186 0 
1357 1 14.52 88.0228 0 
1358 1 15.73 90.1186 0 
1359 1 16.94 88.0228 0 
1360 1 18.15 90.1186 0 
1361 1 19.36 88.0228 0 
1362 1 20.57 90.1186 0 
1363 1 21.78 88.0228 0 
1364 1 22.99 90.1186 0 
1365 1 24.2 88.0228 0 
1366 1 25.41 90.1186 0 
1367 1 26.62 88.0228 0 
1368 1 27.83 90.1186 0 
1369 1 29.04 88.0228 0 
1370 1 30.25 90.1186 0 
1371 1 31.46 88.0228 0 
1372 1 32.67 90.1186 0 
1373 1 33.88 88.0228 0 
1374 1 35.09 90.1186 0 
1375 1 36.3 88.0228 0 
1376 1 37.51 90.1186 0 
1377 1 38.72 88.0228 0 
1378 1 39.93 90.1186 0 
1379 1 41.14 88.0228 0 
1380 1 42.35 90.1186 0 
1381 1 43.56 88.0228 0 
1382 1 44.77 90.1186 0 
1383 1 45.98 88.0228 0 
1384 1 47.19 90.1186 0 
1385 1 48.4 88.0228 0 
1386 1 49.61 90.1186 0 
1387 1 50.82 88.0228 0 
1388 1 52.03 90.1186 0 
1389 1 53.24 88.0228 0 
1390 1 54.45 90.1186 0 
1391 1 55.66 88.0228 0 
1392 1 56.87 90.1186 0 
1393 1 58.08 88.0228 0 
1394 1 59.29 90.1186 0 
1395 1 60.5 88.0228 0 
1396 1 61.71 90.1186 0 
1397 1 62.92 88.0228 0 
1398 1 64.13 90.1186 0 
1399 1 65.34 88.0228 0 
1400 1 66.55 90.1186 0 
1401 1 67.76 88.0228 0 
1402 1 68.97 90.1186 0 
1403 1 70.18 88.0228 0 
1404 1 71.39 90.1186 0 
1405 1 72.6 88.0228 0 
1406 1 73.81 90.1186 0 
1407 1 75.02 88.0228 0 
1408 1 76.23 90.1186 0 
1409 1 0 92.2144 0 
1410 1 1.21 94.3102 0 
1411 1 2.42 92.2144 0 
1412 1 3.63 94.3102 0 
1413 1 4.84 92.2144 0 
1414 1 6.05 94.3102 0 
1415 1 7.26 92.2144 0 
1416 1 8.47 94.3102 0 
1417 1 9.68 92.2144 0 
1418 1 10.89 94.3102 0 
1419 1 12.1 92.2144 0 
1420 1 13.31 94.3102 0 
1421 1 14.52 92.2144 0 
1422 1 15.73 94.3102 0 
1423 1 16.94 92.2144 0 
1424 1 18.15 94.3102 0 
1425 1 19.36 92.2144 0 
1426 1 20.57 94.3102 0 
1427 1 21.78 92.2144 0 
1428 1 22.99 94.3102 0 
1429 1 24.2 92.2144 0 
1430 1 25.41 94.3102 0 
1431 1 26.62 92.2144 0 
1432 1 27.83 94.3102 0 
1433 1 29.04 92.2144 0 
1434 1 30.25 94.3102 0 
1435 1 31.46 92.2144 0 
1436 1 32.67 94.3102 0 
1437 1 33.88 92.2144 0 
1438 1 35.09 94.3102 0 
1439 1 36.3 92.2144 0 
1440 1 37.51 94.3102 0 
1441 1 38.72 92.2144 0 
1442 1 39.93 94.3102 0 
1443 1 41.14 92.2144 0 
1444 1 42.35 94.3102 0 
1445 1 43.56 92.2144 0 
1446 1 44.77 94.3102 0 
1447 1 45.98 92.2144 0 
1448 1 47.19 94.3102 0 
1449 1 48.4 92.2144 0 
1450 1 49.61 94.3102 0 
1451 1 50.82 92.2144 0 
1452 1 52.03 94.3102 0 
1453 1 53.24 92.2144 0 
1454 1 54.45 94.3102 0 
1455 1 55.66 92.2144 0 
1456 1 56.87 94.3102 0 
1457 1 58.08 92.2144 0 
1458 1 59.29 94.3102 0 
1459 1 60.5 92.2144 0 
1460 1 61.71 94.3102 0 
1461 1 62.92 92.2144 0 
1462 1 64.13 94.3102 0 
1463 1 65.34 92.2144 0 
1464 1 66.55 94.3102 0 
1465 1 67.76 92.2144 0 
1466 1 68.97 94.3102 0 
1467 1 70.18 92.2144 0 
1468 1 71.39 94.3102 0 
1469 1 72.6 92.2144 0 
1470 1 73.81 94.3102 0 
1471 1 75.02 92.2144 0 
1472 1 76.23 94.3102 0 
1473 3 0 96.4059 0 
1474 3 1.21 98.5017 0 
1475 3 2.42 96.4059 0 
1476 3 3.63 98.5017 0 
1477 3 4.84 96.4059 0 
1478 3 6.05 98.5017 0 
1479 3 7.26 96.4059 0 
1480 3 8.47 98.5017 0 
1481 3 9.68 96.4059 0 
1482 3 10.89 98.5017 0 
1483 3 12.1 96.4059 0 
1484 3 13.31 98.5017 0 
1485 3 14.52 96.4059 0 
1486 3 15.73 98.5017 0 
1487 3 16.94 96.4059 0 
1488 3 18.15 98.5017 0 
1489 3 19.36 96.4059 0 
1490 3 20.57 98.5017 0 
1491 3 21.78 96.4059 0 
1492 3 22.99 98.5017 0 
1493 3 24.2 96.4059 0 
1494 3 25.41 98.5017 0 
1495 3 26.62 96.4059 0 
1496 3 27.83 98.5017 0 
1497 3 29.04 96.4059 0 
1498 3 30.25 98.5017 0 
1499 3 31.46 96.4059 0 
1500 3 32.67 98.5017 0 
1501 3 33.88 96.4059 0 
1502 3 35.09 98.5017 0 
1503 3 36.3 96.4059 0 
1504 3 37.51 98.5017 0 
1505 3 38.72 96.4059 0 
1506 3 39.93 98.5017 0 
1507 3 41.14 96.4059 0 
1508 3 42.35 98.5017 0 
1509 3 43.56 96.4059 0 
1510 3 44.77 98.5017 0 
1511 3 45.98 96.4059 0 
1512 3 47.19 98.5017 0 
1513 3 48.4 96.4059 0 
1514 3 49.61 98.5017 0 
1515 3 50.82 96.4059 0 
1516 3 52.03 98.5017 0 
1517 3 53.24 96.4059 0 
1518 3 54.45 98.5017 0 
1519 3 55.66 96.4059 0 
1520 3 56.87 98.5017 0 
1521 3 58.08 96.4059 0 
1522 3 59.29 98.5017 0 
1523 3 60.5 96.4059 0 
1524 3 61.71 98.5017 0 
1525 3 62.92 96.4059 0 
1526 3 64.13 98.5017 0 
1527 3 65.34 96.4059 0 
1528 3 66.55 98.5017 0 
1529 3 67.76 96.4059 0 
1530 3 68.97 98.5017 0 
1531 3 70.18 96.4059 0 
1532 3 71.39 98.5017 0 
1533 3 72.6 96.4059 0 
1534 3 73.81 98.5017 0 
1535 3 75.02 96.4059 0 
1536 3 76.23 98.5017 0 
ITEM: TIMESTEP
2 4.01578e+10
ITEM: NUMBER OF ATOMS
1536
ITEM: BOX BOUNDS
0 77.44
0 100.598
-1.21 1.21
ITEM: ATOMS id type x y z
1 2 0 0 0 
2 2 1.21 2.09578 0 
3 2 2.42 0 0 
4 2 3.63 2.09578 0 
5 2 4.84 0 0 
6 2 6.05 2.09578 0 
7 2 7.26 0 0 
8 2 8.47 2.09578 0 
9 2 9.68 0 0 
10 2 10.89 2.09578 0 
11 2 12.1 0 0 
12 2 13.31 2.09578 0 
13 2 14.52 0 0 
14 2 15.73 2.09578 0 
15 2 16.94 0 0 
16 2 18.15 2.09578 0 
17 2 19.36 0 0 
18 2 20.57 2.09578 0 
19 2 21.78 0 0 
20 2 22.99 2.09578 0 
21 2 24.2 0 0 
22 2 25.41 2.09578 0 
23 2 26.62 0 0 
24 2 27.83 2.09578 0 
25 2 29.04 0 0 
26 2 30.25 2.09578 0 
27 2 31.46 0 0 
28 2 32.67 2.09578 0 
29 2 33.88 0 0 
30 2 35.09 2.09578 0 
31 2 36.3 0 0 
32 2 37.51 2.09578 0 
33 2 38.72 0 0 
34 2 39.93 2.09578 0 
35 2 41.14 0 0 
36 2 42.35 2.09578 0 
37 2 43.56 0 0 
38 2 44.77 2.09578 0 
39 2 45.98 0 0 
40 2 47.19 2.09578 0 
41 2 48.4 0 0 
42 2 49.61 2.09578 0 
43 2 50.82 0 0 
44 2 52.03 2.09578 0 
45 2 53.24 0 0 
46 2 54.45 2.09578 0 
47 2 55.66 0 0 
48 2 56.87 2.09578 0 
49 2 58.08 0 0 
50 2 59.29 2.09578 0 
51 2 60.5 0 0 
52 2 61.71 2.09578 0 
53 2 62.92 0 0 
54 2 64.13 2.09578 0 
55 2 65.34 0 0 
56 2 66.55 2.09578 0 
57 2 67.76 0 0 
58 2 68.97 2.09578 0 
59 2 70.18 0 0 
60 2 71.39 2.09578 0 
61 2 72.6 0 0 
62 2 73.81 2.09578 0 
63 2 75.02 0 0 
64 2 76.23 2.09578 0 
65 2 0 4.19156 0 
66 2 1.21 6.28734 0 
67 2 2.42 4.19156 0 
68 2 3.63 6.28734 0 
69 2 4.84 4.19156 0 
70 1 6.05 6.28734 0 
71 2 7.26 4.19156 0 
72 2 8.47 6.28734 0 
73 2 9.68 4.19156 0 
74 2 10.89 6.28734 0 
75 2 12.1 4.19156 0 
76 2 13.31 6.28734 0 
77 2 14.52 4.19156 0 
78 2 15.73 6.28734 0 
79 2 16.94 4.19156 0 
80 2 18.15 6.28734 0 
81 2 19.36 4.19156 0 
82 2 20.57 6.28734 0 
83 2 21.78 4.19156 0 
84 2 22.99 6.28734 0 
85 2 24.2 4.19156 0 
86 2 25.41 6.28734 0 
87 2 26.62 4.19156 0 
88 2 27.83 6.28734 0 
89 2 29.04 4.19156 0 
90 2 30.25 6.28734 0 
91 2 31.46 4.19156 0 
92 2 32.67 6.28734 0 
93 2 33.88 4.19156 0 
94 2 35.09 6.28734 0 
95 2 36.3 4.19156 0 
96 2 37.51 6.28734 0 
97 2 38.72 4.19156 0 
98 2 39.93 6.28734 0 
99 2 41.14 4.19156 0 
100 2 42.35 6.28734 0 
101 2 43.56 4.19156 0 
102 2 44.77 6.28734 0 
103 2 45.98 4.19156 0 
104 2 47.19 6.28734 0 
105 2 48.4 4.19156 0 
106 2 49.61 6.28734 0 
107 2 50.82 4.19156 0 
108 2 52.03 6.28734 0 
109 2 53.24 4.19156 0 
110 2 54.45 6.28734 0 
111 2 55.66 4.19156 0 
112 2 56.87 6.28734 0 
113 2 58.08 4.19156 0 
114 2 59.29 6.28734 0 
115 2 60.5 4.19156 0 
116 1 61.71 6.28734 0 
117 2 62.92 4.19156 0 
118 1 64.13 6.28734 0 
119 2 65.34 4.19156 0 
120 2 66.55 6.28734 0 
121 2 67.76 4.19156 0 
122 2 68.97 6.28734 0 
123 2 70.18 4.19156 0 
124 2 71.39 6.28734 0 
125 2 72.6 4.19156 0 
126 2 73.81 6.28734 0 
127 2 75.02 4.19156 0 
128 2 76.23 6.28734 0 
129 2 0 8.38313 0 
130 1 1.21 10.4789 0 
131 2 2.42 8.38313 0 
132 1 3.63 10.4789 0 
133 1 4.84 8.38313 0 
134 1 6.05 10.4789 0 
135 1 7.26 8.38313 0 
136 1 8.47 10.4789 0 
137 2 9.68 8.38313 0 
138 2 10.89 10.4789 0 
139 2 12.1 8.38313 0 
140 2 13.31 10.4789 0 
141 2 14.52 8.38313 0 
142 2 15.73 10.4789 0 
143 2 16.94 8.38313 0 
144 2 18.15 10.4789 0 
145 2 19.36 8.38313 0 
146 2 20.57 10.4789 0 
147 2 21.78 8.38313 0 
148 2 22.99 10.4789 0 
149 2 24.2 8.38313 0 
150 1 25.41 10.4789 0 
151 2 26.62 8.38313 0 
152 2 27.83 10.4789 0 
153 2 29.04 8.38313 0 
154 2 30.25 10.4789 0 
155 2 31.46 8.38313 0 
156 2 32.67 10.4789 0 
157 2 33.88 8.38313 0 
158 2 35.09 10.4789 0 
159 2 36.3 8.38313 0 
160 2 37.51 10.4789 0 
161 2 38.72 8.38313 0 
162 2 39.93 10.4789 0 
163 2 41.14 8.38313 0 
164 2 42.35 10.4789 0 
165 2 43.56 8.38313 0 
166 2 44.77 10.4789 0 
167 2 45.98 8.38313 0 
168 2 47.19 10.4789 0 
169 2 48.4 8.38313 0 
170 2 49.61 10.4789 0 
171 2 50.82 8.38313 0 
172 2 52.03 10.4789 0 
173 2 53.24 8.38313 0 
174 2 54.45 10.4789 0 
175 2 55.66 8.38313 0 
176 1 56.87 10.4789 0 
177 2 58.08 8.38313 0 
178 1 59.29 10.4789 0 
179 1 60.5 8.38313 0 
180 1 61.71 10.4789 0 
181 1 62.92 8.38313 0 
182 1 64.13 10.4789 0 
183 1 65.34 8.38313 0 
184 1 66.55 10.4789 0 
185 2 67.76 8.38313 0 
186 2 68.97 10.4789 0 
187 2 70.18 8.38313 0 
188 2 71.39 10.4789 0 
189 2 72.6 8.38313 0 
190 2 73.81 10.4789 0 
191 2 75.02 8.38313 0 
192 2 76.23 10.4789 0 
193 1 0 12.5747 0 
194 1 1.21 14.6705 0 
195 1 2.42 12.5747 0 
196 1 3.63 14.6705 0 
197 1 4.84 12.5747 0 
198 1 6.05 14.6705 0 
199 1 7.26 12.5747 0 
200 1 8.47 14.6705 0 
201 1 9.68 12.5747 0 
202 1 10.89 14.6705 0 
203 1 12.1 12.5747 0 
204 1 13.31 14.6705 0 
205 1 14.52 12.5747 0 
206 1 15.73 14.6705 0 
207 2 16.94 12.5747 0 
208 1 18.15 14.6705 0 
209 2 19.36 12.5747 0 
210 1 20.57 14.6705 0 
211 1 21.78 12.5747 0 
212 1 22.99 14.6705 0 
213 1 24.2 12.5747 0 
214 1 25.41 14.6705 0 
215 1 26.62 12.5747 0 
216 1 27.83 14.6705 0 
217 1 29.04 12.5747 0 
218 1 30.25 14.6705 0 
219 1 31.46 12.5747 0 
220 1 32.67 14.6705 0 
221 1 33.88 12.5747 0 
222 1 35.09 14.6705 0 
223 2 36.3 12.5747 0 
224 1 37.51 14.6705 0 
225 2 38.72 12.5747 0 
226 1 39.93 14.6705 0 
227 2 41.14 12.5747 0 
228 1 42.35 14.6705 0 
229 2 43.56 12.5747 0 
230 1 44.77 14.6705 0 
231 2 45.98 12.5747 0 
232 1 47.19 14.6705 0 
233 2 48.4 12.5747 0 
234 1 49.61 14.6705 0 
235 1 50.82 12.5747 0 
236 1 52.03 14.6705 0 
237 1 53.24 12.5747 0 
238 1 54.45 14.6705 0 
239 1 55.66 12.5747 0 
240 1 56.87 14.6705 0 
241 1 58.08 12.5747 0 
242 1 59.29 14.6705 0 
243 1 60.5 12.5747 0 
244 1 61.71 14.6705 0 
245 1 62.92 12.5747 0 
246 1 64.13 14.6705 0 
247 1 65.34 12.5747 0 
248 1 66.55 14.6705 0 
249 2 67.76 12.5747 0 
250 2 68.97 14.6705 0 
251 2 70.18 12.5747 0 
252 1 71.39 14.6705 0 
253 1 72.6 12.5747 0 
254 1 73.81 14.6705 0 
255 1 75.02 12.5747 0 
256 1 76.23 14.6705 0 
257 1 0 16.7663 0 
258 1 1.21 18.862 0 
259 1 2.42 16.7663 0 
260 1 3.63 18.862 0 
261 1 4.84 16.7663 0 
262 1 6.05 18.862 0 
263 1 7.26 16.7663 0 
264 1 8.47 18.862 0 
265 1 9.68 16.7663 0 
266 1 10.89 18.862 0 
267 1 12.1 16.7663 0 
268 1 13.31 18.862 0 
269 1 14.52 16.7663 0 
270 1 15.73 18.862 0 
271 1 16.94 16.7663 0 
272 1 18.15 18.862 0 
273 1 19.36 16.7663 0 
274 1 20.57 18.862 0 
275 1 21.78 16.7663 0 
276 1 22.99 18.862 0 
277 1 24.2 16.7663 0 
278 1 25.41 18.862 0 
279 1 26.62 16.7663 0 
280 1 27.83 18.862 0 
281 1 29.04 16.7663 0 
282 1 30.25 18.862 0 
283 1 31.46 16.7663 0 
284 1 32.67 18.862 0 
285 1 33.88 16.7663 0 
286 1 35.09 18.862 0 
287 1 36.3 16.7663 0 
288 1 37.51 18.862 0 
289 1 38.72 16.7663 0 
290 1 39.93 18.862 0 
291 1 41.14 16.7663 0 
292 1 42.35 18.862 0 
293 1 43.56 16.7663 0 
294 1 44.77 18.862 0 
295 1 45.98 16.7663 0 
296 1 47.19 18.862 0 
297 1 48.4 16.7663 0 
298 1 49.61 18.862 0 
299 1 50.82 16.7663 0 
300 1 52.03 18.862 0 
301 1 53.24 16.7663 0 
302 1 54.45 18.862 0 
303 1 55.66 16.7663 0 
304 1 56.87 18.862 0 
305 1 58.08 16.7663 0 
306 1 59.29 18.862 0 
307 1 60.5 16.7663 0 
308 1 61.71 18.862 0 
309 1 62.92 16.7663 0 
310 1 64.13 18.862 0 
311 1 65.34 16.7663 0 
312 1 66.55 18.862 0 
313 1 67.76 16.7663 0 
314 1 68.97 18.862 0 
315 1 70.18 16.7663 0 
316 1 71.39 18.862 0 
317 1 72.6 16.7663 0 
318 1 73.81 18.862 0 
319 1 75.02 16.7663 0 
320 1 76.23 18.862 0 
321 1 0 20.9578 0 
322 1 1.21 23.0536 0 
323 1 2.42 20.9578 0 
324 1 3.63 23.0536 0 
325 1 4.84 20.9578 0 
326 1 6.05 23.0536 0 
327 1 7.26 20.9578 0 
328 1 8.47 23.0536 0 
329 1 9.68 20.9578 0 
330 1 10.89 23.0536 0 
331 1 12.1 20.9578 0 
332 1 13.31 23.0536 0 
333 1 14.52 20.9578 0 
334 1 15.73 23.0536 0 
335 1 16.94 20.9578 0 
336 1 18.15 23.0536 0 
337 1 19.36 20.9578 0 
338 1 20.57 23.0536 0 
339 1 21.78 20.9578 0 
340 1 22.99 23.0536 0 
341 1 24.2 20.9578 0 
342 1 25.41 23.0536 0 
343 1 26.62 20.9578 0 
344 1 27.83 23.0536 0 
345 1 29.04 20.9578 0 
346 1 30.25 23.0536 0 
347 1 31.46 20.9578 0 
348 1 32.67 23.0536 0 
349 1 33.88 20.9578 0 
350 1 35.09 23.0536 0 
351 1 36.3 20.9578 0 
352 1 37.51 23.0536 0 
353 1 38.72 20.9578 0 
354 1 39.93 23.0536 0 
355 1 41.14 20.9578 0 
356 1 42.35 23.0536 0 
357 1 43.56 20.9578 0 
358 1 44.77 23.0536 0 
359 1 45.98 20.9578 0 
360 1 47.19 23.0536 0 
361 1 48.4 20.9578 0 
362 1 49.61 23.0536 0 
363 1 50.82 20.9578 0 
364 1 52.03 23.0536 0 
365 1 53.24 20.9578 0 
366 1 54.45 23.0536 0 
367 1 55.66 20.9578 0 
368 1 56.87 23.0536 0 
369 1 58.08 20.9578 0 
370 1 59.29 23.0536 0 
371 1 60.5 20.9578 0 
372 1 61.71 23.0536 0 
373 1 62.92 20.9578 0 
374 1 64.13 23.0536 0 
375 1 65.34 20.9578 0 
376 1 66.55 23.0536 0 
377 1 67.76 20.9578 0 
378 1 68.97 23.0536 0 
379 1 70.18 20.9578 0 
380 1 71.39 23.0536 0 
381 1 72.6 20.9578 0 
382 1 73.81 23.0536 0 
383 1 75.02 20.9578 0 
384 1 76.23 23.0536 0 
385 1 0 25.1494 0 
386 1 1.21 27.2452 0 
387 1 2.42 25.1494 0 
388 1 3.63 27.2452 0 
389 1 4.84 25.1494 0 
390 1 6.05 27.2452 0 
391 1 7.26 25.1494 0 
392 1 8.47 27.2452 0 
393 1 9.68 25.1494 0 
394 1 10.89 27.2452 0 
395 1 12.1 25.1494 0 
396 1 13.31 27.2452 0 
397 1 14.52 25.1494 0 
398 1 15.73 27.2452 0 
399 1 16.94 25.1494 0 
400 1 18.15 27.2452 0 
401 1 19.36 25.1494 0 
402 1 20.57 27.2452 0 
403 1 21.78 25.1494 0 
404 1 22.99 27.2452 0 
405 1 24.2 25.1494 0 
406 1 25.41 27.2452 0 
407 1 26.62 25.1494 0 
408 1 27.83 27.2452 0 
409 1 29.04 25.1494 0 
410 1 30.25 27.2452 0 
411 1 31.46 25.1494 0 
412 1 32.67 27.2452 0 
413 1 33.88 25.1494 0 
414 1 35.09 27.2452 0 
415 1 36.3 25.1494 0 
416 1 37.51 27.2452 0 
417 1 38.72 25.1494 0 
418 1 39.93 27.2452 0 
419 1 41.14 25.1494 0 
420 1 42.35 27.2452 0 
421 1 43.56 25.1494 0 
422 1 44.77 27.2452 0 
423 1 45.98 25.1494 0 
424 1 47.19 27.2452 0 
425 1 48.4 25.1494 0 
426 1 49.61 27.2452 0 
427 1 50.82 25.1494 0 
428 1 52.03 27.2452 0 
429 1 53.24 25.1494 0 
430 1 54.45 27.2452 0 
431 1 55.66 25.1494 0 
432 1 56.87 27.2452 0 
433 1 58.08 25.1494 0 
434 1 59.29 27.2452 0 
435 1 60.5 25.1494 0 
436 1 61.71 27.2452 0 
437 1 62.92 25.1494 0 
438 1 64.13 27.2452 0 
439 1 65.34 25.1494 0 
440 1 66.55 27.2452 0 
441 1 67.76 25.1494 0 
442 1 68.97 27.2452 0 
443 1 70.18 25.1494 0 
444 1 71.39 27.2452 0 
445 1 72.6 25.1494 0 
446 1 73.81 27.2452 0 
447 1 75.02 25.1494 0 
448 1 76.23 27.2452 0 
449 1 0 29.3409 0 
450 1 1.21 31.4367 0 
451 1 2.42 29.3409 0 
452 1 3.63 31.4367 0 
453 1 4.84 29.3409 0 
454 1 6.05 31.4367 0 
455 1 7.26 29.3409 0 
456 1 8.47 31.4367 0 
457 1 9.68 29.3409 0 
458 1 10.89 31.4367 0 
459 1 12.1 29.3409 0 
460 1 13.31 31.4367 0 
461 1 14.52 29.3409 0 
462 1 15.73 31.4367 0 
463 1 16.94 29.3409 0 
464 1 18.15 31.4367 0 
465 1 19.36 29.3409 0 
466 1 20.57 31.4367 0 
467 1 21.78 29.3409 0 
468 1 22.99 31.4367 0 
469 1 24.2 29.3409 0 
470 1 25.41 31.4367 0 
471 1 26.62 29.3409 0 
472 1 27.83 31.4367 0 
473 1 29.04 29.3409 0 
474 1 30.25 31.4367 0 
475 1 31.46 29.3409 0 
476 1 32.67 31.4367 0 
477 1 33.88 29.3409 0 
478 1 35.09 31.4367 0 
479 1 36.3 29.3409 0 
480 1 37.51 31.4367 0 
481 1 38.72 29.3409 0 
482 1 39.93 31.4367 0 
483 1 41.14 29.3409 0 
484 1 42.35 31.4367 0 
485 1 43.56 29.3409 0 
486 1 44.77 31.4367 0 
487 1 45.98 29.3409 0 
488 1 47.19 31.4367 0 
489 1 48.4 29.3409 0 
490 1 49.61 31.4367 0 
491 1 50.82 29.3409 0 
492 1 52.03 31.4367 0 
493 1 53.24 29.3409 0 
494 1 54.45 31.4367 0 
495 1 55.66 29.3409 0 
496 1 56.87 31.4367 0 
497 1 58.08 29.3409 0 
498 1 59.29 31.4367 0 
499 1 60.5 29.3409 0 
500 1 61.71 31.4367 0 
501 1 62.92 29.3409 0 
502 1 64.13 31.4367 0 
503 1 65.34 29.3409 0 
504 1 66.55 31.4367 0 
505 1 67.76 29.3409 0 
506 1 68.97 31.4367 0 
507 1 70.18 29.3409 0 
508 1 71.39 31.4367 0 
509 1 72.6 29.3409 0 
510 1 73.81 31.4367 0 
511 1 75.02 29.3409 0 
512 1 76.23 31.4367 0 
513 1 0 33.5325 0 
514 1 1.21 35.6283 0 
515 1 2.42 33.5325 0 
516 1 3.63 35.6283 0 
517 1 4.84 33.5325 0 
518 1 6.05 35.6283 0 
519 1 7.26 33.5325 0 
520 1 8.47 35.6283 0 
521 1 9.68 33.5325 0 
522 1 10.89 35.6283 0 
523 1 12.1 33.5325 0 
524 1 13.31 35.6283 0 
525 1 14.52 33.5325 0 
526 1 15.73 35.6283 0 
527 1 16.94 33.5325 0 
528 1 18.15 35.6283 0 
529 1 19.36 33.5325 0 
530 1 20.57 35.6283 0 
531 1 21.78 33.5325 0 
532 1 22.99 35.6283 0 
533 1 24.2 33.5325 0 
534 1 25.41 35.6283 0 
535 1 26.62 33.5325 0 
536 1 27.83 35.6283 0 
537 1 29.04 33.5325 0 
538 1 30.25 35.6283 0 
539 1 31.46 33.5325 0 
540 1 32.67 35.6283 0 
541 1 33.88 33.5325 0 
542 1 35.09 35.6283 0 
543 1 36.3 33.5325 0 
544 1 37.51 35.6283 0 
545 1 38.72 33.5325 0 
546 1 39.93 35.6283 0 
547 1 41.14 33.5325 0 
548 1 42.35 35.6283 0 
549 1 43.56 33.5325 0 
550 1 44.77 35.6283 0 
551 1 45.98 33.5325 0 
552 1 47.19 35.6283 0 
553 1 48.4 33.5325 0 
554 1 49.61 35.6283 0 
555 1 50.82 33.5325 0 
556 1 52.03 35.6283 0 
557 1 53.24 33.5325 0 
558 1 54.45 35.6283 0 
559 1 55.66 33.5325 0 
560 1 56.87 35.6283 0 
561 1 58.08 33.5325 0 
562 1 59.29 35.6283 0 
563 1 60.5 33.5325 0 
564 1 61.71 35.6283 0 
565 1 62.92 33.5325 0 
566 1 64.13 35.6283 0 
567 1 65.34 33.5325 0 
568 1 66.55 35.6283 0 
569 1 67.76 33.5325 0 
570 1 68.97 35.6283 0 
571 1 70.18 33.5325 0 
572 1 71.39 35.6283 0 
573 1 72.6 33.5325 0 
574 1 73.81 35.6283 0 
575 1 75.02 33.5325 0 
576 1 76.23 35.6283 0 
577 1 0 37.7241 0 
578 1 1.21 39.8198 0 
579 1 2.42 37.7241 0 
580 1 3.63 39.8198 0 
581 1 4.84 37.7241 0 
582 1 6.05 39.8198 0 
583 1 7.26 37.7241 0 
584 1 8.47 39.8198 0 
585 1 9.68 37.7241 0 
586 1 10.89 39.8198 0 
587 1 12.1 37.7241 0 
588 1 13.31 39.8198 0 
589 1 14.52 37.7241 0 
590 1 15.73 39.8198 0 
591 1 16.94 37.7241 0 
592 1 18.15 39.8198 0 
593 1 19.36 37.7241 0 
594 1 20.57 39.8198 0 
595 1 21.78 37.7241 0 
596 1 22.99 39.8198 0 
597 1 24.2 37.7241 0 
598 1 25.41 39.8198 0 
599 1 26.62 37.7241 0 
600 1 27.83 39.8198 0 
601 1 29.04 37.7241 0 
602 1 30.25 39.8198 0 
603 1 31.46 37.7241 0 
604 1 32.67 39.8198 0 
605 1 33.88 37.7241 0 
606 1 35.09 39.8198 0 
607 1 36.3 37.7241 0 
608 1 37.51 39.8198 0 
609 1 38.72 37.7241 0 
610 1 39.93 39.8198 0 
611 1 41.14 37.7241 0 
612 1 42.35 39.8198 0 
613 1 43.56 37.7241 0 
614 1 44.77 39.8198 0 
615 1 45.98 37.7241 0 
616 1 47.19 39.8198 0 
617 1 48.4 37.7241 0 
618 1 49.61 39.8198 0 
619 1 50.82 37.7241 0 
620 1 52.03 39.8198 0 
621 1 53.24 37.7241 0 
622 1 54.45 39.8198 0 
623 1 55.66 37.7241 0 
624 1 56.87 39.8198 0 
625 1 58.08 37.7241 0 
626 1 59.29 39.8198 0 
627 1 60.5 37.7241 0 
628 1 61.71 39.8198 0 
629 1 62.92 37.7241 0 
630 1 64.13 39.8198 0 
631 1 65.34 37.7241 0 
632 1 66.55 39.8198 0 
633 1 67.76 37.7241 0 
634 1 68.97 39.8198 0 
635 1 70.18 37.7241 0 
636 1 71.39 39.8198 0 
637 1 72.6 37.7241 0 
638 1 73.81 39.8198 0 
639 1 75.02 37.7241 0 
640 1 76.23 39.8198 0 
641 1 0 41.9156 0 
642 1 1.21 44.0114 0 
643 1 2.42 41.9156 0 
644 1 3.63 44.0114 0 
645 1 4.84 41.9156 0 
646 1 6.05 44.0114 0 
647 1 7.26 41.9156 0 
648 1 8.47 44.0114 0 
649 1 9.68 41.9156 0 
650 1 10.89 44.0114 0 
651 1 12.1 41.9156 0 
652 1 13.31 44.0114 0 
653 1 14.52 41.9156 0 
654 1 15.73 44.0114 0 
655 1 16.94 41.9156 0 
656 1 18.15 44.0114 0 
657 1 19.36 41.9156 0 
658 1 20.57 44.0114 0 
659 1 21.78 41.9156 0 
660 1 22.99 44.0114 0 
661 1 24.2 41.9156 0 
662 1 25.41 44.0114 0 
663 1 26.62 41.9156 0 
664 1 27.83 44.0114 0 
665 1 29.04 41.9156 0 
666 1 30.25 44.0114 0 
667 1 31.46 41.9156 0 
668 1 32.67 44.0114 0 
669 1 33.88 41.9156 0 
670 1 35.09 44.0114 0 
671 1 36.3 41.9156 0 
672 1 37.51 44.0114 0 
673 1 38.72 41.9156 0 
674 1 39.93 44.0114 0 
675 1 41.14 41.9156 0 
676 1 42.35 44.0114 0 
677 1 43.56 41.9156 0 
678 1 44.77 44.0114 0 
679 1 45.98 41.9156 0 
680 1 47.19 44.0114 0 
681 1 48.4 41.9156 0 
682 1 49.61 44.0114 0 
683 1 50.82 41.9156 0 
684 1 52.03 44.0114 0 
685 1 53.24 41.9156 0 
686 1 54.45 44.0114 0 
687 1 55.66 41.9156 0 
688 1 56.87 44.0114 0 
689 1 58.08 41.9156 0 
690 1 59.29 44.0114 0 
691 1 60.5 41.9156 0 
692 1 61.71 44.0114 0 
693 1 62.92 41.9156 0 
694 1 64.13 44.0114 0 
695 1 65.34 41.9156 0 
696 1 66.55 44.0114 0 
697 1 67.76 41.9156 0 
698 1 68.97 44.0114 0 
699 1 70.18 41.9156 0 
700 1 71.39 44.0114 0 
701 1 72.6 41.9156 0 
702 1 73.81 44.0114 0 
703 1 75.02 41.9156 0 
704 1 76.23 44.0114 0 
705 1 0 46.1072 0 
706 1 1.21 48.203 0 
707 1 2.42 46.1072 0 
708 1 3.63 48.203 0 
709 1 4.84 46.1072 0 
710 1 6.05 48.203 0 
711 1 7.26 46.1072 0 
712 1 8.47 48.203 0 
713 1 9.68 46.1072 0 
714 1 10.89 48.203 0 
715 1 12.1 46.1072 0 
716 1 13.31 48.203 0 
717 1 14.52 46.1072 0 
718 1 15.73 48.203 0 
719 1 16.94 46.1072 0 
720 1 18.15 48.203 0 
721 1 19.36 46.1072 0 
722 1 20.57 48.203 0 
723 1 21.78 46.1072 0 
724 1 22.99 48.203 0 
725 1 24.2 46.1072 0 
726 1 25.41 48.203 0 
727 1 26.62 46.1072 0 
728 1 27.83 48.203 0 
729 1 29.04 46.1072 0 
730 1 30.25 48.203 0 
731 1 31.46 46.1072 0 
732 1 32.67 48.203 0 
733 1 33.88 46.1072 0 
734 1 35.09 48.203 0 
735 1 36.3 46.1072 0 
736 1 37.51 48.203 0 
737 1 38.72 46.1072 0 
738 1 39.93 48.203 0 
739 1 41.14 46.1072 0 
740 1 42.35 48.203 0 
741 1 43.56 46.1072 0 
742 1 44.77 48.203 0 
743 1 45.98 46.1072 0 
744 1 47.19 48.203 0 
745 1 48.4 46.1072 0 
746 1 49.61 48.203 0 
747 1 50.82 46.1072 0 
748 1 52.03 48.203 0 
749 1 53.24 46.1072 0 
750 1 54.45 48.203 0 
751 1 55.66 46.1072 0 
752 1 56.87 48.203 0 
753 1 58.08 46.1072 0 
754 1 59.29 48.203 0 
755 1 60.5 46.1072 0 
756 1 61.71 48.203 0 
757 1 62.92 46.1072 0 
758 1 64.13 48.203 0 
759 1 65.34 46.1072 0 
760 1 66.55 48.203 0 
761 1 67.76 46.1072 0 
762 1 68.97 48.203 0 
763 1 70.18 46.1072 0 
764 1 71.39 48.203 0 
765 1 72.6 46.1072 0 
766 1 73.81 48.203 0 
767 1 75.02 46.1072 0 
768 1 76.23 48.203 0 
769 1 0 50.2988 0 
770 1 1.21 52.3945 0 
771 1 2.42 50.2988 0 
772 1 3.63 52.3945 0 
773 1 4.84 50.2988 0 
774 1 6.05 52.3945 0 
775 1 7.26 50.2988 0 
776 1 8.47 52.3945 0 
777 1 9.68 50.2988 0 
778 1 10.89 52.3945 0 
779 1 12.1 50.2988 0 
780 1 13.31 52.3945 0 
781 1 14.52 50.2988 0 
782 1 15.73 52.3945 0 
783 1 16.94 50.2988 0 
784 1 18.15 52.3945 0 
785 1 19.36 50.2988 0 
786 1 20.57 52.3945 0 
787 1 21.78 50.2988 0 
788 1 22.99 52.3945 0 
789 1 24.2 50.2988 0 
790 1 25.41 52.3945 0 
791 1 26.62 50.2988 0 
792 1 27.83 52.3945 0 
793 1 29.04 50.2988 0 
794 1 30.25 52.3945 0 
795 1 31.46 50.2988 0 
796 1 32.67 52.3945 0 
797 1 33.88 50.2988 0 
798 1 35.09 52.3945 0 
799 1 36.3 50.2988 0 
800 1 37.51 52.3945 0 
801 1 38.72 50.2988 0 
802 1 39.93 52.3945 0 
803 1 41.14 50.2988 0 
804 1 42.35 52.3945 0 
805 1 43.56 50.2988 0 
806 1 44.77 52.3945 0 
807 1 45.98 50.2988 0 
808 1 47.19 52.3945 0 
809 1 48.4 50.2988 0 
810 1 49.61 52.3945 0 
811 1 50.82 50.2988 0 
812 1 52.03 52.3945 0 
813 1 53.24 50.2988 0 
814 1 54.45 52.3945 0 
815 1 55.66 50.2988 0 
816 1 56.87 52.3945 0 
817 1 58.08 50.2988 0 
818 1 59.29 52.3945 0 
819 1 60.5 50.2988 0 
820 1 61.71 52.3945 0 
821 1 62.92 50.2988 0 
822 1 64.13 52.3945 0 
823 1 65.34 50.2988 0 
824 1 66.55 52.3945 0 
825 1 67.76 50.2988 0 
826 1 68.97 52.3945 0 
827 1 70.18 50.2988 0 
828 1 71.39 52.3945 0 
829 1 72.6 50.2988 0 
830 1 73.81 52.3945 0 
831 1 75.02 50.2988 0 
832 1 76.23 52.3945 0 
833 1 0 54.4903 0 
834 1 1.21 56.5861 0 
835 1 2.42 54.4903 0 
836 1 3.63 56.5861 0 
837 1 4.84 54.4903 0 
838 1 6.05 56.5861 0 
839 1 7.26 54.4903 0 
840 1 8.47 56.5861 0 
841 1 9.68 54.4903 0 
842 1 10.89 56.5861 0 
843 1 12.1 54.4903 0 
844 1 13.31 56.5861 0 
845 1 14.52 54.4903 0 
846 1 15.73 56.5861 0 
847 1 16.94 54.4903 0 
848 1 18.15 56.5861 0 
849 1 19.36 54.4903 0 
850 1 20.57 56.5861 0 
851 1 21.78 54.4903 0 
852 1 22.99 56.5861 0 
853 1 24.2 54.4903 0 
854 1 25.41 56.5861 0 
855 1 26.62 54.4903 0 
856 1 27.83 56.5861 0 
857 1 29.04 54.4903 0 
858 1 30.25 56.5861 0 
859 1 31.46 54.4903 0 
860 1 32.67 56.5861 0 
861 1 33.88 54.4903 0 
862 1 35.09 56.5861 0 
863 1 36.3 54.4903 0 
864 1 37.51 56.5861 0 
865 1 38.72 54.4903 0 
866 1 39.93 56.5861 0 
867 1 41.14 54.4903 0 
868 1 42.35 56.5861 0 
869 1 43.56 54.4903 0 
870 1 44.77 56.5861 0 
871 1 45.98 54.4903 0 
872 1 47.19 56.5861 0 
873 1 48.4 54.4903 0 
874 1 49.61 56.5861 0 
875 1 50.82 54.4903 0 
876 1 52.03 56.5861 0 
877 1 53.24 54.4903 0 
878 1 54.45 56.5861 0 
879 1 55.66 54.4903 0 
880 1 56.87 56.5861 0 
881 1 58.08 54.4903 0 
882 1 59.29 56.5861 0 
883 1 60.5 54.4903 0 
884 1 61.71 56.5861 0 
885 1 62.92 54.4903 0 
886 1 64.13 56.5861 0 
887 1 65.34 54.4903 0 
888 1 66.55 56.5861 0 
889 1 67.76 54.4903 0 
890 1 68.97 56.5861 0 
891 1 70.18 54.4903 0 
892 1 71.39 56.5861 0 
893 1 72.6 54.4903 0 
894 1 73.81 56.5861 0 
895 1 75.02 54.4903 0 
896 1 76.23 56.5861 0 
897 1 0 58.6819 0 
898 1 1.21 60.7777 0 
899 1 2.42 58.6819 0 
900 1 3.63 60.7777 0 
901 1 4.84 58.6819 0 
902 1 6.05 60.7777 0 
903 1 7.26 58.6819 0 
904 1 8.47 60.7777 0 
905 1 9.68 58.6819 0 
906 1 10.89 60.7777 0 
907 1 12.1 58.6819 0 
908 1 13.31 60.7777 0 
909 1 14.52 58.6819 0 
910 1 15.73 60.7777 0 
911 1 16.94 58.6819 0 
912 1 18.15 60.7777 0 
913 1 19.36 58.6819 0 
914 1 20.57 60.7777 0 
915 1 21.78 58.6819 0 
916 1 22.99 60.7777 0 
917 1 24.2 58.6819 0 
918 1 25.41 60.7777 0 
919 1 26.62 58.6819 0 
920 1 27.83 60.7777 0 
921 1 29.04 58.6819 0 
922 1 30.25 60.7777 0 
923 1 31.46 58.6819 0 
924 1 32.67 60.7777 0 
925 1 33.88 58.6819 0 
926 1 35.09 60.7777 0 
927 1 36.3 58.6819 0 
928 1 37.51 60.7777 0 
929 1 38.72 58.6819 0 
930 1 39.93 60.7777 0 
931 1 41.14 58.6819 0 
932 1 42.35 60.7777 0 
933 1 43.56 58.6819 0 
934 1 44.77 60.7777 0 
935 1 45.98 58.6819 0 
936 1 47.19 60.7777 0 
937 1 48.4 58.6819 0 
938 1 49.61 60.7777 0 
939 1 50.82 58.6819 0 
940 1 52.03 60.7777 0 
941 1 53.24 58.6819 0 
942 1 54.45 60.7777 0 
943 1 55.66 58.6819 0 
944 1 56.87 60.7777 0 
945 1 58.08 58.6819 0 
946 1 59.29 60.7777 0 
947 1 60.5 58.6819 0 
948 1 61.71 60.7777 0 
949 1 62.92 58.6819 0 
950 1 64.13 60.7777 0 
951 1 65.34 58.6819 0 
952 1 66.55 60.7777 0 
953 1 67.76 58.6819 0 
954 1 68.97 60.7777 0 
955 1 70.18 58.6819 0 
956 1 71.39 60.7777 0 
957 1 72.6 58.6819 0 
958 1 73.81 60.7777 0 
959 1 75.02 58.6819 0 
960 1 76.23 60.7777 0 
961 1 0 62.8734 0 
962 1 1.21 64.9692 0 
963 1 2.42 62.8734 0 
964 1 3.63 64.9692 0 
965 1 4.84 62.8734 0 
966 1 6.05 64.9692 0 
967 1 7.26 62.8734 0 
968 1 8.47 64.9692 0 
969 1 9.68 62.8734 0 
970 1 10.89 64.9692 0 
971 1 12.1 62.8734 0 
972 1 13.31 64.9692 0 
973 1 14.52 62.8734 0 
974 1 15.73 64.9692 0 
975 1 16.94 62.8734 0 
976 1 18.15 64.9692 0 
977 1 19.36 62.8734 0 
978 1 20.57 64.9692 0 
979 1 21.78 62.8734 0 
980 1 22.99 64.9692 0 
981 1 24.2 62.8734 0 
982 1 25.41 64.9692 0 
983 1 26.62 62.8734 0 
984 1 27.83 64.9692 0 
985 1 29.04 62.8734 0 
986 1 30.25 64.9692 0 
987 1 31.46 62.8734 0 
988 1 32.67 64.9692 0 
989 1 33.88 62.8734 0 
990 1 35.09 64.9692 0 
991 1 36.3 62.8734 0 
992 1 37.51 64.9692 0 
993 1 38.72 62.8734 0 
994 1 39.93 64.9692 0 
995 1 41.14 62.8734 0 
996 1 42.35 64.9692 0 
997 1 43.56 62.8734 0 
998 1 44.77 64.9692 0 
999 1 45.98 62.8734 0 
1000 1 47.19 64.9692 0 
1001 1 48.4 62.8734 0 
1002 1 49.61 64.9692 0 
1003 1 50.82 62.8734 0 
1004 1 52.03 64.9692 0 
1005 1 53.24 62.8734 0 
1006 1 54.45 64.9692 0 
1007 1 55.66 62.8734 0 
1008 1 56.87 64.9692 0 
1009 1 58.08 62.8734 0 
1010 1 59.29 64.9692 0 
1011 1 60.5 62.8734 0 
1012 1 61.71 64.9692 0 
1013 1 62.92 62.8734 0 
1014 1 64.13 64.9692 0 
1015 1 65.34 62.8734 0 
1016 1 66.55 64.9692 0 
1017 1 67.76 62.8734 0 
1018 1 68.97 64.9692 0 
1019 1 70.18 62.8734 0 
1020 1 71.39 64.9692 0 
1021 1 72.6 62.8734 0 
1022 1 73.81 64.9692 0 
1023 1 75.02 62.8734 0 
1024 1 76.23 64.9692 0 
1025 1 0 67.065 0 
1026 1 1.21 69.1608 0 
1027 1 2.42 67.065 0 
1028 1 3.63 69.1608 0 
1029 1 4.84 67.065 0 
1030 1 6.05 69.1608 0 
1031 1 7.26 67.065 0 
1032 1 8.47 69.1608 0 
1033 1 9.68 67.065 0 
1034 1 10.89 69.1608 0 
1035 1 12.1 67.065 0 
1036 1 13.31 69.1608 0 
1037 1 14.52 67.065 0 
1038 1 15.73 69.1608 0 
1039 1 16.94 67.065 0 
1040 1 18.15 69.1608 0 
1041 1 19.36 67.065 0 
1042 1 20.57 69.1608 0 
1043 1 21.78 67.065 0 
1044 1 22.99 69.1608 0 
1045 1 24.2 67.065 0 
1046 1 25.41 69.1608 0 
1047 1 26.62 67.065 0 
1048 1 27.83 69.1608 0 
1049 1 29.04 67.065 0 
1050 1 30.25 69.1608 0 
1051 1 31.46 67.065 0 
1052 1 32.67 69.1608 0 
1053 1 33.88 67.065 0 
1054 1 35.09 69.1608 0 
1055 1 36.3 67.065 0 
1056 1 37.51 69.1608 0 
1057 1 38.72 67.065 0 
1058 1 39.93 69.1608 0 
1059 1 41.14 67.065 0 
1060 1 42.35 69.1608 0 
1061 1 43.56 67.065 0 
1062 1 44.77 69.1608 0 
1063 1 45.98 67.065 0 
1064 1 47.19 69.1608 0 
1065 1 48.4 67.065 0 
1066 1 49.61 69.1608 0 
1067 1 50.82 67.065 0 
1068 1 52.03 69.1608 0 
1069 1 53.24 67.065 0 
1070 1 54.45 69.1608 0 
1071 1 55.66 67.065 0 
1072 1 56.87 69.1608 0 
1073 1 58.08 67.065 0 
1074 1 59.29 69.1608 0 
1075 1 60.5 67.065 0 
1076 1 61.71 69.1608 0 
1077 1 62.92 67.065 0 
1078 1 64.13 69.1608 0 
1079 1 65.34 67.065 0 
1080 1 66.55 69.1608 0 
1081 1 67.76 67.065 0 
1082 1 68.97 69.1608 0 
1083 1 70.18 67.065 0 
1084 1 71.39 69.1608 0 
1085 1 72.6 67.065 0 
1086 1 73.81 69.1608 0 
1087 1 75.02 67.065 0 
1088 1 76.23 69.1608 0 
1089 1 0 71.2566 0 
1090 1 1.21 73.3524 0 
1091 1 2.42 71.2566 0 
1092 1 3.63 73.3524 0 
1093 1 4.84 71.2566 0 
1094 1 6.05 73.3524 0 
1095 1 7.26 71.2566 0 
1096 1 8.47 73.3524 0 
1097 1 9.68 71.2566 0 
1098 1 10.89 73.3524 0 
1099 1 12.1 71.2566 0 
1100 1 13.31 73.3524 0 
1101 1 14.52 71.2566 0 
1102 1 15.73 73.3524 0 
1103 1 16.94 71.2566 0 
1104 1 18.15 73.3524 0 
1105 1 19.36 71.2566 0 
1106 1 20.57 73.3524 0 
1107 1 21.78 71.2566 0 
1108 1 22.99 73.3524 0 
1109 1 24.2 71.2566 0 
1110 1 25.41 73.3524 0 
1111 1 26.62 71.2566 0 
1112 1 27.83 73.3524 0 
1113 1 29.04 71.2566 0 
1114 1 30.25 73.3524 0 
1115 1 31.46 71.2566 0 
1116 1 32.67 73.3524 0 
1117 1 33.88 71.2566 0 
1118 1 35.09 73.3524 0 
1119 1 36.3 71.2566 0 
1120 1 37.51 73.3524 0 
1121 1 38.72 71.2566 0 
1122 1 39.93 73.3524 0 
1123 1 41.14 71.2566 0 
1124 1 42.35 73.3524 0 
1125 1 43.56 71.2566 0 
1126 1 44.77 73.3524 0 
1127 1 45.98 71.2566 0 
1128 1 47.19 73.3524 0 
1129 1 48.4 71.2566 0 
1130 1 49.61 73.3524 0 
1131 1 50.82 71.2566 0 
1132 1 52.03 73.3524 0 
1133 1 53.24 71.2566 0 
1134 1 54.45 73.3524 0 
1135 1 55.66 71.2566 0 
1136 1 56.87 73.3524 0 
1137 1 58.08 71.2566 0 
1138 1 59.29 73.3524 0 
1139 1 60.5 71.2566 0 
1140 1 61.71 73.3524 0 
1141 1 62.92 71.2566 0 
1142 1 64.13 73.3524 0 
1143 1 65.34 71.2566 0 
1144 1 66.55 73.3524 0 
1145 1 67.76 71.2566 0 
1146 1 68.97 73.3524 0 
1147 1 70.18 71.2566 0 
1148 1 71.39 73.3524 0 
1149 1 72.6 71.2566 0 
1150 1 73.81 73.3524 0 
1151 1 75.02 71.2566 0 
1152 1 76.23 73.3524 0 
1153 1 0 75.4481 0 
1154 1 1.21 77.5439 0 
1155 1 2.42 75.4481 0 
1156 1 3.63 77.5439 0 
1157 1 4.84 75.4481 0 
1158 1 6.05 77.5439 0 
1159 1 7.26 75.4481 0 
1160 1 8.47 77.5439 0 
1161 1 9.68 75.4481 0 
1162 1 10.89 77.5439 0 
1163 1 12.1 75.4481 0 
1164 1 13.31 77.5439 0 
1165 1 14.52 75.4481 0 
1166 1 15.73 77.5439 0 
1167 1 16.94 75.4481 0 
1168 1 18.15 77.5439 0 
1169 1 19.36 75.4481 0 
1170 1 20.57 77.5439 0 
1171 1 21.78 75.4481 0 
1172 1 22.99 77.5439 0 
1173 1 24.2 75.4481 0 
1174 1 25.41 77.5439 0 
1175 1 26.62 75.4481 0 
1176 1 27.83 77.5439 0 
1177 1 29.04 75.4481 0 
1178 1 30.25 77.5439 0 
1179 1 31.46 75.4481 0 
1180 1 32.67 77.5439 0 
1181 1 33.88 75.4481 0 
1182 1 35.09 77.5439 0 
1183 1 36.3 75.4481 0 
1184 1 37.51 77.5439 0 
1185 1 38.72 75.4481 0 
1186 1 39.93 77.5439 0 
1187 1 41.14 75.4481 0 
1188 1 42.35 77.5439 0 
1189 1 43.56 75.4481 0 
1190 1 44.77 77.5439 0 
1191 1 45.98 75.4481 0 
1192 1 47.19 77.5439 0 
1193 1 48.4 75.4481 0 
1194 1 49.61 77.5439 0 
1195 1 50.82 75.4481 0 
1196 1 52.03 77.5439 0 
1197 1 53.24 75.4481 0 
1198 1 54.45 77.5439 0 
1199 1 55.66 75.4481 0 
1200 1 56.87 77.5439 0 
1201 1 58.08 75.4481 0 
1202 1 59.29 77.5439 0 
1203 1 60.5 75.4481 0 
1204 1 61.71 77.5439 0 
1205 1 62.92 75.4481 0 
1206 1 64.13 77.5439 0 
1207 1 65.34 75.4481 0 
1208 1 66.55 77.5439 0 
1209 1 67.76 75.4481 0 
1210 1 68.97 77.5439 0 
1211 1 70.18 75.4481 0 
1212 1 71.39 77.5439 0 
1213 1 72.6 75.4481 0 
1214 1 73.81 77.5439 0 
1215 1 75.02 75.4481 0 
1216 1 76.23 77.5439 0 
1217 1 0 79.6397 0 
1218 1 1.21 81.7355 0 
1219 1 2.42 79.6397 0 
1220 1 3.63 81.7355 0 
1221 1 4.84 79.6397 0 
1222 1 6.05 81.7355 0 
1223 1 7.26 79.6397 0 
1224 1 8.47 81.7355 0 
1225 1 9.68 79.6397 0 
1226 1 10.89 81.7355 0 
1227 1 12.1 79.6397 0 
1228 1 13.31 81.7355 0 
1229 1 14.52 79.6397 0 
1230 1 15.73 81.7355 0 
1231 1 16.94 79.6397 0 
1232 1 18.15 81.7355 0 
1233 1 19.36 79.6397 0 
1234 1 20.57 81.7355 0 
1235 1 21.78 79.6397 0 
1236 1 22.99 81.7355 0 
1237 1 24.2 79.6397 0 
1238 1 25.41 81.7355 0 
1239 1 26.62 79.6397 0 
1240 1 27.83 81.7355 0 
1241 1 29.04 79.6397 0 
1242 1 30.25 81.7355 0 
1243 1 31.46 79.6397 0 
1244 1 32.67 81.7355 0 
1245 1 33.88 79.6397 0 
1246 1 35.09 81.7355 0 
1247 1 36.3 79.6397 0 
1248 1 37.51 81.7355 0 
1249 1 38.72 79.6397 0 
1250 1 39.93 81.7355 0 
1251 1 41.14 79.6397 0 
1252 1 42.35 81.7355 0 
1253 1 43.56 79.6397 0 
1254 1 44.77 81.7355 0 
1255 1 45.98 79.6397 0 
1256 1 47.19 81.7355 0 
1257 1 48.4 79.6397 0 
1258 1 49.61 81.7355 0 
1259 1 50.82 79.6397 0 
1260 1 52.03 81.7355 0 
1261 1 53.24 79.6397 0 
1262 1 54.45 81.7355 0 
1263 1 55.66 79.6397 0 
1264 1 56.87 81.7355 0 
1265 1 58.08 79.6397 0 
1266 1 59.29 81.7355 0 
1267 1 60.5 79.6397 0 
1268 1 61.71 81.7355 0 
1269 1 62.92 79.6397 0 
1270 1 64.13 81.7355 0 
1271 1 65.34 79.6397 0 
1272 1 66.55 81.7355 0 
1273 1 67.76 79.6397 0 
1274 1 68.97 81.7355 0 
1275 1 70.18 79.6397 0 
1276 1 71.39 81.7355 0 
1277 1 72.6 79.6397 0 
1278 1 73.81 81.7355 0 
1279 1 75.02 79.6397 0 
1280 1 76.23 81.7355 0 
1281 1 0 83.8313 0 
1282 1 1.21 85.927 0 
1283 1 2.42 83.8313 0 
1284 1 3.63 85.927 0 
1285 1 4.84 83.8313 0 
1286 1 6.05 85.927 0 
1287 1 7.26 83.8313 0 
1288 1 8.47 85.927 0 
1289 1 9.68 83.8313 0 
1290 1 10.89 85.927 0 
1291 1 12.1 83.8313 0 
1292 1 13.31 85.927 0 
1293 1 14.52 83.8313 0 
1294 1 15.73 85.927 0 
1295 1 16.94 83.8313 0 
1296 1 18.15 85.927 0 
1297 1 19.36 83.8313 0 
1298 1 20.57 85.927 0 
1299 1 21.78 83.8313 0 
1300 1 22.99 85.927 0 
1301 1 24.2 83.8313 0 
1302 1 25.41 85.927 0 
1303 1 26.62 83.8313 0 
1304 1 27.83 85.927 0 
1305 1 29.04 83.8313 0 
1306 1 30.25 85.927 0 
1307 1 31.46 83.8313 0 
1308 1 32.67 85.927 0 
1309 1 33.88 83.8313 0 
1310 1 35.09 85.927 0 
1311 1 36.3 83.8313 0 
1312 1 37.51 85.927 0 
1313 1 38.72 83.8313 0 
1314 1 39.93 85.927 0 
1315 1 41.14 83.8313 0 
1316 1 42.35 85.927 0 
1317 1 43.56 83.8313 0 
1318 1 44.77 85.927 0 
1319 1 45.98 83.8313 0 
1320 1 47.19 85.927 0 
1321 1 48.4 83.8313 0 
1322 1 49.61 85.927 0 
1323 1 50.82 83.8313 0 
1324 1 52.03 85.927 0 
1325 1 53.24 83.8313 0 
1326 1 54.45 85.927 0 
1327 1 55.66 83.8313 0 
1328 1 56.87 85.927 0 
1329 1 58.08 83.8313 0 
1330 1 59.29 85.927 0 
1331 1 60.5 83.8313 0 
1332 1 61.71 85.927 0 
1333 1 62.92 83.8313 0 
1334 1 64.13 85.927 0 
1335 1 65.34 83.8313 0 
1336 1 66.55 85.927 0 
1337 1 67.76 83.8313 0 
1338 1 68.97 85.927 0 
1339 1 70.18 83.8313 0 
1340 1 71.39 85.927 0 
1341 1 72.6 83.8313 0 
1342 1 73.81 85.927 0 
1343 1 75.02 83.8313 0 
1344 1 76.23 85.927 0 
1345 1 0 88.0228 0 
1346 1 1.21 90.1186 0 
1347 1 2.42 88.0228 0 
1348 1 3.63 90.1186 0 
1349 1 4.84 88.0228 0 
1350 1 6.05 90.1186 0 
1351 1 7.26 88.0228 0 
1352 1 8.47 90.1186 0 
1353 1 9.68 88.0228 0 
1354 1 10.89 90.1186 0 
1355 1 12.1 88.0228 0 
1356 1 13.31 90.1186 0 
1357 1 14.52 88.0228 0 
1358 1 15.73 90.1186 0 
1359 1 16.94 88.0228 0 
1360 1 18.15 90.1186 0 
1361 1 19.36 88.0228 0 
1362 1 20.57 90.1186 0 
1363 1 21.78 88.0228 0 
1364 1 22.99 90.1186 0 
1365 1 24.2 88.0228 0 
1366 1 25.41 90.1186 0 
1367 1 26.62 88.0228 0 
1368 1 27.83 90.1186 0 
1369 1 29.04 88.0228 0 
1370 1 30.25 90.1186 0 
1371 1 31.46 88.0228 0 
1372 1 32.67 90.1186 0 
1373 1 33.88 88.0228 0 
1374 1 35.09 90.1186 0 
1375 1 36.3 88.0228 0 
1376 1 37.51 90.1186 0 
1377 1 38.72 88.0228 0 
1378 1 39.93 90.1186 0 
1379 1 41.14 88.0228 0 
1380 1 42.35 90.1186 0 
1381 1 43.56 88.0228 0 
1382 1 44.77 90.1186 0 
1383 1 45.98 88.0228 0 
1384 1 47.19 90.1186 0 
1385 1 48.4 88.0228 0 
1386 1 49.61 90.1186 0 
1387 1 50.82 88.0228 0 
1388 1 52.03 90.1186 0 
1389 1 53.24 88.0228 0 
1390 1 54.45 90.1186 0 
1391 1 55.66 88.0228 0 
1392 1 56.87 90.1186 0 
1393 1 58.08 88.0228 0 
1394 1 59.29 90.1186 0 
1395 1 60.5 88.0228 0 
1396 1 61.71 90.1186 0 
1397 1 62.92 88.0228 0 
1398 1 64.13 90.1186 0 
1399 1 65.34 88.0228 0 
1400 1 66.55 90.1186 0 
1401 1 67.76 88.0228 0 
1402 1 68.97 90.1186 0 
1403 1 70.18 88.0228 0 
1404 1 71.39 90.1186 0 
1405 1 72.6 88.0228 0 
1406 1 73.81 90.1186 0 
1407 1 75.02 88.0228 0 
1408 1 76.23 90.1186 0 
1409 1 0 92.2144 0 
1410 1 1.21 94.3102 0 
1411 1 2.42 92.2144 0 
1412 1 3.63 94.3102 0 
1413 1 4.84 92.2144 0 
1414 1 6.05 94.3102 0 
1415 1 7.26 92.2144 0 
1416 1 8.47 94.3102 0 
1417 1 9.68 92.2144 0 
1418 1 10.89 94.3102 0 
1419 1 12.1 92.2144 0 
1420 1 13.31 94.3102 0 
1421 1 14.52 92.2144 0 
1422 1 15.73 94.3102 0 
1423 1 16.94 92.2144 0 
1424 1 18.15 94.3102 0 
1425 1 19.36 92.2144 0 
1426 1 20.57 94.3102 0 
1427 1 21.78 92.2144 0 
1428 1 22.99 94.3102 0 
1429 1 24.2 92.2144 0 
1430 1 25.41 94.3102 0 
1431 1 26.62 92.2144 0 
1432 1 27.83 94.3102 0 
1433 1 29.04 92.2144 0 
1434 1 30.25 94.3102 0 
1435 1 31.46 92.2144 0 
1436 1 32.67 94.3102 0 
1437 1 33.88 92.2144 0 
1438 1 35.09 94.3102 0 
1439 1 36.3 92.2144 0 
1440 1 37.51 94.3102 0 
1441 1 38.72 92.2144 0 
1442 1 39.93 94.3102 0 
1443 1 41.14 92.2144 0 
1444 1 42.35 94.3102 0 
1445 1 43.56 92.2144 0 
1446 1 44.77 94.3102 0 
1447 1 45.98 92.2144 0 
1448 1 47.19 94.3102 0 
1449 1 48.4 92.2144 0 
1450 1 49.61 94.3102 0 
1451 1 50.82 92.2144 0 
1452 1 52.03 94.3102 0 
1453 1 53.24 92.2144 0 
1454 1 54.45 94.3102 0 
1455 1 55.66 92.2144 0 
1456 1 56.87 94.3102 0 
1457 1 58.08 92.2144 0 
1458 1 59.29 94.3102 0 
1459 1 60.5 92.2144 0 
1460 1 61.71 94.3102 0 
1461 1 62.92 92.2144 0 
1462 1 64.13 94.3102 0 
1463 1 65.34 92.2144 0 
1464 1 66.55 94.3102 0 
1465 1 67.76 92.2144 0 
1466 1 68.97 94.3102 0 
1467 1 70.18 92.2144 0 
1468 1 71.39 94.3102 0 
1469 1 72.6 92.2144 0 
1470 1 73.81 94.3102 0 
1471 1 75.02 92.2144 0 
1472 1 76.23 94.3102 0 
1473 3 0 96.4059 0 
1474 3 1.21 98.5017 0 
1475 3 2.42 96.4059 0 
1476 3 3.63 98.5017 0 
1477 3 4.84 96.4059 0 
1478 3 6.05 98.5017 0 
1479 3 7.26 96.4059 0 
1480 3 8.47 98.5017 0 
1481 3 9.68 96.4059 0 
1482 3 10.89 98.5017 0 
1483 3 12.1 96.4059 0 
1484 3 13.31 98.5017 0 
1485 3 14.52 96.4059 0 
1486 3 15.73 98.5017 0 
1487 3 16.94 96.4059 0 
1488 3 18.15 98.5017 0 
1489 3 19.36 96.4059 0 
1490 3 20.57 98.5017 0 
1491 3 21.78 96.4059 0 
1492 3 22.99 98.5017 0 
1493 3 24.2 96.4059 0 
1494 3 25.41 98.5017 0 
1495 3 26.62 96.4059 0 
1496 3 27.83 98.5017 0 
1497 3 29.04 96.4059 0 
1498 3 30.25 98.5017 0 
1499 3 31.46 96.4059 0 
1500 3 32.67 98.5017 0 
1501 3 33.88 96.4059 0 
1502 3 35.09 98.5017 0 
1503 3 36.3 96.4059 0 
1504 3 37.51 98.5017 0 
1505 3 38.72 96.4059 0 
1506 3 39.93 98.5017 0 
1507 3 41.14 96.4059 0 
1508 3 42.35 98.5017 0 
1509 3 43.56 96.4059 0 
1510 3 44.77 98.5017 0 
1511 3 45.98 96.4059 0 
1512 3 47.19 98.5017 0 
1513 3 48.4 96.4059 0 
1514 3 49.61 98.5017 0 
1515 3 50.82 96.4059 0 
1516 3 52.03 98.5017 0 
1517 3 53.24 96.4059 0 
1518 3 54.45 98.5017 0 
1519 3 55.66 96.4059 0 
1520 3 56.87 98.5017 0 
1521 3 58.08 96.4059 0 
1522 3 59.29 98.5017 0 
1523 3 60.5 96.4059 0 
1524 3 61.71 98.5017 0 
1525 3 62.92 96.4059 0 
1526 3 64.13 98.5017 0 
1527 3 65.34 96.4059 0 
1528 3 66.55 98.5017 0 
1529 3 67.76 96.4059 0 
1530 3 68.97 98.5017 0 
1531 3 70.18 96.4059 0 
1532 3 71.39 98.5017 0 
1533 3 72.6 96.4059 0 
1534 3 73.81 98.5017 0 
1535 3 75.02 96.4059 0 
1536 3 76.23 98.5017 0 
ITEM: TIMESTEP
3 6.02325e+10
ITEM: NUMBER OF ATOMS
1536
ITEM: BOX BOUNDS
0 77.44
0 100.598
-1.21 1.21
ITEM: ATOMS id type x y z
1 2 0 0 0 
2 2 1.21 2.09578 0 
3 2 2.42 0 0 
4 2 3.63 2.09578 0 
5 2 4.84 0 0 
6 2 6.05 2.09578 0 
7 2 7.26 0 0 
8 2 8.47 2.09578 0 
9 2 9.68 0 0 
10 2 10.89 2.09578 0 
11 2 12.1 0 0 
12 2 13.31 2.09578 0 
13 2 14.52 0 0 
14 2 15.73 2.09578 0 
15 2 16.94 0 0 
16 2 18.15 2.09578 0 
17 2 19.36 0 0 
18 2 20.57 2.09578 0 
19 2 21.78 0 0 
20 2 22.99 2.09578 0 
21 2 24.2 0 0 
22 2 25.41 2.09578 0 
23 2 26.62 0 0 
24 2 27.83 2.09578 0 
25 2 29.04 0 0 
26 2 30.25 2.09578 0 
27 2 31.46 0 0 
28 2 32.67 2.09578 0 
29 2 33.88 0 0 
30 2 35.09 2.09578 0 
31 2 36.3 0 0 
32 2 37.51 2.09578 0 
33 2 38.72 0 0 
34 2 39.93 2.09578 0 
35 2 41.14 0 0 
36 2 42.35 2.09578 0 
37 2 43.56 0 0 
38 2 44.77 2.09578 0 
39 2 45.98 0 0 
40 2 47.19 2.09578 0 
41 2 48.4 0 0 
42 2 49.61 2.09578 0 
43 2 50.82 0 0 
44 2 52.03 2.09578 0 
45 2 53.24 0 0 
46 2 54.45 2.09578 0 
47 2 55.66 0 0 
48 2 56.87 2.09578 0 
49 2 58.08 0 0 
50 2 59.29 2.09578 0 
51 2 60.5 0 0 
52 2 61.71 2.09578 0 
53 2 62.92 0 0 
54 2 64.13 2.09578 0 
55 2 65.34 0 0 
56 2 66.55 2.09578 0 
57 2 67.76 0 0 
58 2 68.97 2.09578 0 
59 2 70.18 0 0 
60 2 71.39 2.09578 0 
61 2 72.6 0 0 
62 2 73.81 2.09578 0 
63 2 75.02 0 0 
64 2 76.23 2.09578 0 
65 2 0 4.19156 0 
66 2 1.21 6.28734 0 
67 2 2.42 4.19156 0 
68 2 3.63 6.28734 0 
69 2 4.84 4.19156 0 
70 2 6.05 6.28734 0 
71 2 7.26 4.19156 0 
72 2 8.47 6.28734 0 
73 2 9.68 4.19156 0 
74 2 10.89 6.28734 0 
75 2 12.1 4.19156 0 
76 2 13.31 6.28734 0 
77 2 14.52 4.19156 0 
78 2 15.73 6.28734 0 
79 2 16.94 4.19156 0 
80 2 18.15 6.28734 0 
81 2 19.36 4.19156 0 
82 2 20.57 6.28734 0 
83 2 21.78 4.19156 0 
84 2 22.99 6.28734 0 
85 2 24.2 4.19156 0 
86 2 25.41 6.28734 0 
87 2 26.62 4.19156 0 
88 2 27.83 6.28734 0 
89 2 29.04 4.19156 0 
90 2 30.25 6.28734 0 
91 2 31.46 4.19156 0 
92 2 32.67 6.28734 0 
93 2 33.88 4.19156 0 
94 2 35.09 6.28734 0 
95 2 36.3 4.19156 0 
96 2 37.51 6.28734 0 
97 2 38.72 4.19156 0 
98 2 39.93 6.28734 0 
99 2 41.14 4.19156 0 
100 2 42.35 6.28734 0 
101 2 43.56 4.19156 0 
102 2 44.77 6.28734 0 
103 2 45.98 4.19156 0 
104 2 47.19 6.28734 0 
105 2 48.4 4.19156 0 
106 2 49.61 6.28734 0 
107 2 50.82 4.19156 0 
108 2 52.03 6.28734 0 
109 2 53.24 4.19156 0 
110 2 54.45 6.28734 0 
111 2 55.66 4.19156 0 
112 2 56.87 6.28734 0 
113 2 58.08 4.19156 0 
114 2 59.29 6.28734 0 
115 2 60.5 4.19156 0 
116 1 61.71 6.28734 0 
117 2 62.92 4.19156 0 
118 1 64.13 6.28734 0 
119 2 65.34 4.19156 0 
120 2 66.55 6.28734 0 
121 2 67.76 4.19156 0 
122 2 68.97 6.28734 0 
123 2 70.18 4.19156 0 
124 2 71.39 6.28734 0 
125 2 72.6 4.19156 0 
126 2 73.81 6.28734 0 
127 2 75.02 4.19156 0 
128 2 76.23 6.28734 0 
129 2 0 8.38313 0 
130 2 1.21 10.4789 0 
131 2 2.42 8.38313 0 
132 1 3.63 10.4789 0 
133 1 4.84 8.38313 0 
134 1 6.05 10.4789 0 
135 2 7.26 8.38313 0 
136 2 8.47 10.4789 0 
137 2 9.68 8.38313 0 
138 2 10.89 10.4789 0 
139 2 12.1 8.38313 0 
140 2 13.31 10.4789 0 
141 2 14.52 8.38313 0 
142 2 15.73 10.4789 0 
143 2 16.94 8.38313 0 
144 2 18.15 10.4789 0 
145 2 19.36 8.38313 0 
146 2 20.57 10.4789 0 
147 2 21.78 8.38313 0 
148 2 22.99 10.4789 0 
149 2 24.2 8.38313 0 
150 2 25.41 10.4789 0 
151 2 26.62 8.38313 0 
152 2 27.83 10.4789 0 
153 2 29.04 8.38313 0 
154 2 30.25 10.4789 0 
155 2 31.46 8.38313 0 
156 2 32.67 10.4789 0 
157 2 33.88 8.38313 0 
158 2 35.09 10.4789 0 
159 2 36.3 8.38313 0 
160 2 37.51 10.4789 0 
161 2 38.72 8.38313 0 
162 2 39.93 10.4789 0 
163 2 41.14 8.38313 0 
164 2 42.35 10.4789 0 
165 2 43.56 8.38313 0 
166 2 44.77 10.4789 0 
167 2 45.98 8.38313 0 
168 2 47.19 10.4789 0 
169 2 48.4 8.38313 0 
170 2 49.61 10.4789 0 
171 2 50.82 8.38313 0 
172 2 52.03 10.4789 0 
173 2 53.24 8.38313 0 
174 2 54.45 10.4789 0 
175 2 55.66 8.38313 0 
176 1 56.87 10.4789 0 
177 2 58.08 8.38313 0 
178 1 59.29 10.4789 0 
179 1 60.5 8.38313 0 
180 1 61.71 10.4789 0 
181 1 62.92 8.38313 0 
182 1 64.13 10.4789 0 
183 2 65.34 8.38313 0 
184 2 66.55 10.4789 0 
185 2 67.76 8.38313 0 
186 2 68.97 10.4789 0 
187 2 70.18 8.38313 0 
188 2 71.39 10.4789 0 
189 2 72.6 8.38313 0 
190 2 73.81 10.4789 0 
191 2 75.02 8.38313 0 
192 2 76.23 10.4789 0 
193 2 0 12.5747 0 
194 2 1.21 14.6705 0 
195 1 2.42 12.5747 0 
196 1 3.63 14.6705 0 
197 1 4.84 12.5747 0 
198 1 6.05 14.6705 0 
199 1 7.26 12.5747 0 
200 1 8.47 14.6705 0 
201 1 9.68 12.5747 0 
202 1 10.89 14.6705 0 
203 1 12.1 12.5747 0 
204 1 13.31 14.6705 0 
205 2 14.52 12.5747 0 
206 1 15.73 14.6705 0 
207 2 16.94 12.5747 0 
208 1 18.15 14.6705 0 
209 2 19.36 12.5747 0 
210 1 20.57 14.6705 0 
211 2 21.78 12.5747 0 
212 2 22.99 14.6705 0 
213 2 24.2 12.5747 0 
214 2 25.41 14.6705 0 
215 2 26.62 12.5747 0 
216 2 27.83 14.6705 0 
217 2 29.04 12.5747 0 
218 1 30.25 14.6705 0 
219 2 31.46 12.5747 0 
220 1 32.67 14.6705 0 
221 2 33.88 12.5747 0 
222 2 35.09 14.6705 0 
223 2 36.3 12.5747 0 
224 2 37.51 14.6705 0 
225 2 38.72 12.5747 0 
226 2 39.93 14.6705 0 
227 2 41.14 12.5747 0 
228 2 42.35 14.6705 0 
229 2 43.56 12.5747 0 
230 2 44.77 14.6705 0 
231 2 45.98 12.5747 0 
232 2 47.19 14.6705 0 
233 2 48.4 12.5747 0 
234 1 49.61 14.6705 0 
235 2 50.82 12.5747 0 
236 1 52.03 14.6705 0 
237 1 53.24 12.5747 0 
238 1 54.45 14.6705 0 
239 1 55.66 12.5747 0 
240 1 56.87 14.6705 0 
241 1 58.08 12.5747 0 
242 1 59.29 14.6705 0 
243 1 60.5 12.5747 0 
244 1 61.71 14.6705 0 
245 1 62.92 12.5747 0 
246 1 64.13 14.6705 0 
247 1 65.34 12.5747 0 
248 1 66.55 14.6705 0 
249 2 67.76 12.5747 0 
250 2 68.97 14.6705 0 
251 2 70.18 12.5747 0 
252 2 71.39 14.6705 0 
253 2 72.6 12.5747 0 
254 2 73.81 14.6705 0 
255 2 75.02 12.5747 0 
256 2 76.23 14.6705 0 
257 2 0 16.7663 0 
258 1 1.21 18.862 0 
259 1 2.42 16.7663 0 
260 1 3.63 18.862 0 
261 1 4.84 16.7663 0 
262 1 6.05 18.862 0 
263 1 7.26 16.7663 0 
264 1 8.47 18.862 0 
265 1 9.68 16.7663 0 
266 1 10.89 18.862 0 
267 1 12.1 16.7663 0 
268 1 13.31 18.862 0 
269 1 14.52 16.7663 0 
270 1 15.73 18.862 0 
271 1 16.94 16.7663 0 
272 1 18.15 18.862 0 
273 1 19.36 16.7663 0 
274 1 20.57 18.862 0 
275 1 21.78 16.7663 0 
276 1 22.99 18.862 0 
277 1 24.2 16.7663 0 
278 1 25.41 18.862 0 
279 1 26.62 16.7663 0 
280 1 27.83 18.862 0 
281 1 29.04 16.7663 0 
282 1 30.25 18.862 0 
283 1 31.46 16.7663 0 
284 1 32.67 18.862 0 
285 1 33.88 16.7663 0 
286 1 35.09 18.862 0 
287 1 36.3 16.7663 0 
288 1 37.51 18.862 0 
289 1 38.72 16.7663 0 
290 1 39.93 18.862 0 
291 1 41.14 16.7663 0 
292 1 42.35 18.862 0 
293 2 43.56 16.7663 0 
294 2 44.77 18.862 0 
295 2 45.98 16.7663 0 
296 1 47.19 18.862 0 
297 1 48.4 16.7663 0 
298 1 49.61 18.862 0 
299 1 50.82 16.7663 0 
300 1 52.03 18.862 0 
301 1 53.24 16.7663 0 
302 1 54.45 18.862 0 
303 1 55.66 16.7663 0 
304 1 56.87 18.862 0 
305 1 58.08 16.7663 0 
306 1 59.29 18.862 0 
307 1 60.5 16.7663 0 
308 1 61.71 18.862 0 
309 1 62.92 16.7663 0 
310 1 64.13 18.862 0 
311 1 65.34 16.7663 0 
312 1 66.55 18.862 0 
313 1 67.76 16.7663 0 
314 1 68.97 18.862 0 
315 1 70.18 16.7663 0 
316 1 71.39 18.862 0 
317 2 72.6 16.7663 0 
318 2 73.81 18.862 0 
319 2 75.02 16.7663 0 
320 2 76.23 18.862 0 
321 1 0 20.9578 0 
322 1 1.21 23.0536 0 
323 1 2.42 20.9578 0 
324 1 3.63 23.0536 0 
325 1 4.84 20.9578 0 
326 1 6.05 23.0536 0 
327 1 7.26 20.9578 0 
328 1 8.47 23.0536 0 
329 1 9.68 20.9578 0 
330 1 10.89 23.0536 0 
331 1 12.1 20.9578 0 
332 1 13.31 23.0536 0 
333 1 14.52 20.9578 0 
334 1 15.73 23.0536 0 
335 1 16.94 20.9578 0 
336 1 18.15 23.0536 0 
337 1 19.36 20.9578 0 
338 1 20.57 23.0536 0 
339 1 21.78 20.9578 0 
340 1 22.99 23.0536 0 
341 1 24.2 20.9578 0 
342 1 25.41 23.0536 0 
343 1 26.62 20.9578 0 
344 1 27.83 23.0536 0 
345 1 29.04 20.9578 0 
346 1 30.25 23.0536 0 
347 1 31.46 20.9578 0 
348 1 32.67 23.0536 0 
349 1 33.88 20.9578 0 
350 1 35.09 23.0536 0 
351 1 36.3 20.9578 0 
352 1 37.51 23.0536 0 
353 1 38.72 20.9578 0 
354 1 39.93 23.0536 0 
355 1 41.14 20.9578 0 
356 1 42.35 23.0536 0 
357 1 43.56 20.9578 0 
358 1 44.77 23.0536 0 
359 1 45.98 20.9578 0 
360 1 47.19 23.0536 0 
361 1 48.4 20.9578 0 
362 1 49.61 23.0536 0 
363 1 50.82 20.9578 0 
364 1 52.03 23.0536 0 
365 1 53.24 20.9578 0 
366 1 54.45 23.0536 0 
367 1 55.66 20.9578 0 
368 1 56.87 23.0536 0 
369 1 58.08 20.9578 0 
370 1 59.29 23.0536 0 
371 1 60.5 20.9578 0 
372 1 61.71 23.0536 0 
373 1 62.92 20.9578 0 
374 1 64.13 23.0536 0 
375 1 65.34 20.9578 0 
376 1 66.55 23.0536 0 
377 1 67.76 20.9578 0 
378 1 68.97 23.0536 0 
379 1 70.18 20.9578 0 
380 1 71.39 23.0536 0 
381 1 72.6 20.9578 0 
382 1 73.81 23.0536 0 
383 2 75.02 20.9578 0 
384 1 76.23 23.0536 0 
385 1 0 25.1494 0 
386 1 1.21 27.2452 0 
387 1 2.42 25.1494 0 
388 1 3.63 27.2452 0 
389 1 4.84 25.1494 0 
390 1 6.05 27.2452 0 
391 1 7.26 25.1494 0 
392 1 8.47 27.2452 0 
393 1 9.68 25.1494 0 
394 1 10.89 27.2452 0 
395 1 12.1 25.1494 0 
396 1 13.31 27.2452 0 
397 1 14.52 25.1494 0 
398 1 15.73 27.2452 0 
399 1 16.94 25.1494 0 
400 1 18.15 27.2452 0 
401 1 19.36 25.1494 0 
402 1 20.57 27.2452 0 
403 1 21.78 25.1494 0 
404 1 22.99 27.2452 0 
405 1 24.2 25.1494 0 
406 1 25.41 27.2452 0 
407 1 26.62 25.1494 0 
408 1 27.83 27.2452 0 
409 1 29.04 25.1494 0 
410 1 30.25 27.2452 0 
411 1 31.46 25.1494 0 
412 1 32.67 27.2452 0 
413 1 33.88 25.1494 0 
414 1 35.09 27.2452 0 
415 1 36.3 25.1494 0 
416 1 37.51 27.2452 0 
417 1 38.72 25.1494 0 
418 1 39.93 27.2452 0 
419 1 41.14 25.1494 0 
420 1 42.35 27.2452 0 
421 1 43.56 25.1494 0 
422 1 44.77 27.2452 0 
423 1 45.98 25.1494 0 
424 1 47.19 27.2452 0 
425 1 48.4 25.1494 0 
426 1 49.61 27.2452 0 
427 1 50.82 25.1494 0 
428 1 52.03 27.2452 0 
429 1 53.24 25.1494 0 
430 1 54.45 27.2452 0 
431 1 55.66 25.1494 0 
432 1 56.87 27.2452 0 
433 1 58.08 25.1494 0 
434 1 59.29 27.2452 0 
435 1 60.5 25.1494 0 
436 1 61.71 27.2452 0 
437 1 62.92 25.1494 0 
438 1 64.13 27.2452 0 
439 1 65.34 25.1494 0 
440 1 66.55 27.2452 0 
441 1 67.76 25.1494 0 
442 1 68.97 27.2452 0 
443 1 70.18 25.1494 0 
444 1 71.39 27.2452 0 
445 1 72.6 25.1494 0 
446 1 73.81 27.2452 0 
447 1 75.02 25.1494 0 
448 1 76.23 27.2452 0 
449 1 0 29.3409 0 
450 1 1.21 31.4367 0 
451 1 2.42 29.3409 0 
452 1 3.63 31.4367 0 
453 1 4.84 29.3409 0 
454 1 6.05 31.4367 0 
455 1 7.26 29.3409 0 
456 1 8.47 31.4367 0 
457 1 9.68 29.3409 0 
458 1 10.89 31.4367 0 
459 1 12.1 29.3409 0 
460 1 13.31 31.4367 0 
461 1 14.52 29.3409 0 
462 1 15.73 31.4367 0 
463 1 16.94 29.3409 0 
464 1 18.15 31.4367 0 
465 1 19.36 29.3409 0 
466 1 20.57 31.4367 0 
467 1 21.78 29.3409 0 
468 1 22.99 31.4367 0 
469 1 24.2 29.3409 0 
470 1 25.41 31.4367 0 
471 1 26.62 29.3409 0 
472 1 27.83 31.4367 0 
473 1 29.04 29.3409 0 
474 1 30.25 31.4367 0 
475 1 31.46 29.3409 0 
476 1 32.67 31.4367 0 
477 1 33.88 29.3409 0 
478 1 35.09 31.4367 0 
479 1 36.3 29.3409 0 
480 1 37.51 31.4367 0 
481 1 38.72 29.3409 0 
482 1 39.93 31.4367 0 
483 1 41.14 29.3409 0 
484 1 42.35 31.4367 0 
485 1 43.56 29.3409 0 
486 1 44.77 31.4367 0 
487 1 45.98 29.3409 0 
488 1 47.19 31.4367 0 
489 1 48.4 29.3409 0 
490 1 49.61 31.4367 0 
491 1 50.82 29.3409 0 
492 1 52.03 31.4367 0 
493 1 53.24 29.3409 0 
494 1 54.45 31.4367 0 
495 1 55.66 29.3409 0 
496 1 56.87 31.4367 0 
497 1 58.08 29.3409 0 
498 1 59.29 31.4367 0 
499 1 60.5 29.3409 0 
500 1 61.71 31.4367 0 
501 1 62.92 29.3409 0 
502 1 64.13 31.4367 0 
503 1 65.34 29.3409 0 
504 1 66.55 31.4367 0 
505 1 67.76 29.3409 0 
506 1 68.97 31.4367 0 
507 1 70.18 29.3409 0 
508 1 71.39 31.4367 0 
509 1 72.6 29.3409 0 
510 1 73.81 31.4367 0 
511 1 75.02 29.3409 0 
512 1 76.23 31.4367 0 
513 1 0 33.5325 0 
514 1 1.21 35.6283 0 
515 1 2.42 33.5325 0 
516 1 3.63 35.6283 0 
517 1 4.84 33.5325 0 
518 1 6.05 35.6283 0 
519 1 7.26 33.5325 0 
520 1 8.47 35.6283 0 
521 1 9.68 33.5325 0 
522 1 10.89 35.6283 0 
523 1 12.1 33.5325 0 
524 1 13.31 35.6283 0 
525 1 14.52 33.5325 0 
526 1 15.73 35.6283 0 
527 1 16.94 33.5325 0 
528 1 18.15 35.6283 0 
529 1 19.36 33.5325 0 
530 1 20.57 35.6283 0 
531 1 21.78 33.5325 0 
532 1 22.99 35.6283 0 
533 1 24.2 33.5325 0 
534 1 25.41 35.6283 0 
535 1 26.62 33.5325 0 
536 1 27.83 35.6283 0 
537 1 29.04 33.5325 0 
538 1 30.25 35.6283 0 
539 1 31.46 33.5325 0 
540 1 32.67 35.6283 0 
541 1 33.88 33.5325 0 
542 1 35.09 35.6283 0 
543 1 36.3 33.5325 0 
544 1 37.51 35.6283 0 
545 1 38.72 33.5325 0 
546 1 39.93 35.6283 0 
547 1 41.14 33.5325 0 
548 1 42.35 35.6283 0 
549 1 43.56 33.5325 0 
550 1 44.77 35.6283 0 
551 1 45.98 33.5325 0 
552 1 47.19 35.6283 0 
553 1 48.4 33.5325 0 
554 1 49.61 35.6283 0 
555 1 50.82 33.5325 0 
556 1 52.03 35.6283 0 
557 1 53.24 33.5325 0 
558 1 54.45 35.6283 0 
559 1 55.66 33.5325 0 
560 1 56.87 35.6283 0 
561 1 58.08 33.5325 0 
562 1 59.29 35.6283 0 
563 1 60.5 33.5325 0 
564 1 61.71 35.6283 0 
565 1 62.92 33.5325 0 
566 1 64.13 35.6283 0 
567 1 65.34 33.5325 0 
568 1 66.55 35.6283 0 
569 1 67.76 33.5325 0 
570 1 68.97 35.6283 0 
571 1 70.18 33.5325 0 
572 1 71.39 35.6283 0 
573 1 72.6 33.5325 0 
574 1 73.81 35.6283 0 
575 1 75.02 33.5325 0 
576 1 76.23 35.6283 0 
577 1 0 37.7241 0 
578 1 1.21 39.8198 0 
579 1 2.42 37.7241 0 
580 1 3.63 39.8198 0 
581 1 4.84 37.7241 0 
582 1 6.05 39.8198 0 
583 1 7.26 37.7241 0 
584 1 8.47 39.8198 0 
585 1 9.68 37.7241 0 
586 1 10.89 39.8198 0 
587 1 12.1 37.7241 0 
588 1 13.31 39.8198 0 
589 1 14.52 37.7241 0 
590 1 15.73 39.8198 0 
591 1 16.94 37.7241 0 
592 1 18.15 39.8198 0 
593 1 19.36 37.7241 0 
594 1 20.57 39.8198 0 
595 1 21.78 37.7241 0 
596 1 22.99 39.8198 0 
597 1 24.2 37.7241 0 
598 1 25.41 39.8198 0 
599 1 26.62 37.7241 0 
600 1 27.83 39.8198 0 
601 1 29.04 37.7241 0 
602 1 30.25 39.8198 0 
603 1 31.46 37.7241 0 
604 1 32.67 39.8198 0 
605 1 33.88 37.7241 0 
606 1 35.09 39.8198 0 
607 1 36.3 37.7241 0 
608 1 37.51 39.8198 0 
609 1 38.72 37.7241 0 
610 1 39.93 39.8198 0 
611 1 41.14 37.7241 0 
612 1 42.35 39.8198 0 
613 1 43.56 37.7241 0 
614 1 44.77 39.8198 0 
615 1 45.98 37.7241 0 
616 1 47.19 39.8198 0 
617 1 48.4 37.7241 0 
618 1 49.61 39.8198 0 
619 1 50.82 37.7241 0 
620 1 52.03 39.8198 0 
621 1 53.24 37.7241 0 
622 1 54.45 39.8198 0 
623 1 55.66 37.7241 0 
624 1 56.87 39.8198 0 
625 1 58.08 37.7241 0 
626 1 59.29 39.8198 0 
627 1 60.5 37.7241 0 
628 1 61.71 39.8198 0 
629 1 62.92 37.7241 0 
630 1 64.13 39.8198 0 
631 1 65.34 37.7241 0 
632 1 66.55 39.8198 0 
633 1 67.76 37.7241 0 
634 1 68.97 39.8198 0 
635 1 70.18 37.7241 0 
636 1 71.39 39.8198 0 
637 1 72.6 37.7241 0 
638 1 73.81 39.8198 0 
639 1 75.02 37.7241 0 
640 1 76.23 39.8198 0 
641 1 0 41.9156 0 
642 1 1.21 44.0114 0 
643 1 2.42 41.9156 0 
644 1 3.63 44.0114 0 
645 1 4.84 41.9156 0 
646 1 6.05 44.0114 0 
647 1 7.26 41.9156 0 
648 1 8.47 44.0114 0 
649 1 9.68 41.9156 0 
650 1 10.89 44.0114 0 
651 1 12.1 41.9156 0 
652 1 13.31 44.0114 0 
653 1 14.52 41.9156 0 
654 1 15.73 44.0114 0 
655 1 16.94 41.9156 0 
656 1 18.15 44.0114 0 
657 1 19.36 41.9156 0 
658 1 20.57 44.0114 0 
659 1 21.78 41.9156 0 
660 1 22.99 44.0114 0 
661 1 24.2 41.9156 0 
662 1 25.41 44.0114 0 
663 1 26.62 41.9156 0 
664 1 27.83 44.0114 0 
665 1 29.04 41.9156 0 
666 1 30.25 44.0114 0 
667 1 31.46 41.9156 0 
668 1 32.67 44.0114 0 
669 1 33.88 41.9156 0 
670 1 35.09 44.0114 0 
671 1 36.3 41.9156 0 
672 1 37.51 44.0114 0 
673 1 38.72 41.9156 0 
674 1 39.93 44.0114 0 
675 1 41.14 41.9156 0 
676 1 42.35 44.0114 0 
677 1 43.56 41.9156 0 
678 1 44.77 44.0114 0 
679 1 45.98 41.9156 0 
680 1 47.19 44.0114 0 
681 1 48.4 41.9156 0 
682 1 49.61 44.0114 0 
683 1 50.82 41.9156 0 
684 1 52.03 44.0114 0 
685 1 53.24 41.9156 0 
686 1 54.45 44.0114 0 
687 1 55.66 41.9156 0 
688 1 56.87 44.0114 0 
689 1 58.08 41.9156 0 
690 1 59.29 44.0114 0 
691 1 60.5 41.9156 0 
692 1 61.71 44.0114 0 
693 1 62.92 41.9156 0 
694 1 64.13 44.0114 0 
695 1 65.34 41.9156 0 
696 1 66.55 44.0114 0 
697 1 67.76 41.9156 0 
698 1 68.97 44.0114 0 
699 1 70.18 41.9156 0 
700 1 71.39 44.0114 0 
701 1 72.6 41.9156 0 
702 1 73.81 44.0114 0 
703 1 75.02 41.9156 0 
704 1 76.23 44.0114 0 
705 1 0 46.1072 0 
706 1 1.21 48.203 0 
707 1 2.42 46.1072 0 
708 1 3.63 48.203 0 
709 1 4.84 46.1072 0 
710 1 6.05 48.203 0 
711 1 7.26 46.1072 0 
712 1 8.47 48.203 0 
713 1 9.68 46.1072 0 
714 1 10.89 48.203 0 
715 1 12.1 46.1072 0 
716 1 13.31 48.203 0 
717 1 14.52 46.1072 0 
718 1 15.73 48.203 0 
719 1 16.94 46.1072 0 
720 1 18.15 48.203 0 
721 1 19.36 46.1072 0 
722 1 20.57 48.203 0 
723 1 21.78 46.1072 0 
724 1 22.99 48.203 0 
725 1 24.2 46.1072 0 
726 1 25.41 48.203 0 
727 1 26.62 46.1072 0 
728 1 27.83 48.203 0 
729 1 29.04 46.1072 0 
730 1 30.25 48.203 0 
731 1 31.46 46.1072 0 
732 1 32.67 48.203 0 
733 1 33.88 46.1072 0 
734 1 35.09 48.203 0 
735 1 36.3 46.1072 0 
736 1 37.51 48.203 0 
737 1 38.72 46.1072 0 
738 1 39.93 48.203 0 
739 1 41.14 46.1072 0 
740 1 42.35 48.203 0 
741 1 43.56 46.1072 0 
742 1 44.77 48.203 0 
743 1 45.98 46.1072 0 
744 1 47.19 48.203 0 
745 1 48.4 46.1072 0 
746 1 49.61 48.203 0 
747 1 50.82 46.1072 0 
748 1 52.03 48.203 0 
749 1 53.24 46.1072 0 
750 1 54.45 48.203 0 
751 1 55.66 46.1072 0 
752 1 56.87 48.203 0 
753 1 58.08 46.1072 0 
754 1 59.29 48.203 0 
755 1 60.5 46.1072 0 
756 1 61.71 48.203 0 
757 1 62.92 46.1072 0 
758 1 64.13 48.203 0 
759 1 65.34 46.1072 0 
760 1 66.55 48.203 0 
761 1 67.76 46.1072 0 
762 1 68.97 48.203 0 
763 1 70.18 46.1072 0 
764 1 71.39 48.203 0 
765 1 72.6 46.1072 0 
766 1 73.81 48.203 0 
767 1 75.02 46.1072 0 
768 1 76.23 48.203 0 
769 1 0 50.2988 0 
770 1 1.21 52.3945 0 
771 1 2.42 50.2988 0 
772 1 3.63 52.3945 0 
773 1 4.84 50.2988 0 
774 1 6.05 52.3945 0 
775 1 7.26 50.2988 0 
776 1 8.47 52.3945 0 
777 1 9.68 50.2988 0 
778 1 10.89 52.3945 0 
779 1 12.1 50.2988 0 
780 1 13.31 52.3945 0 
781 1 14.52 50.2988 0 
782 1 15.73 52.3945 0 
783 1 16.94 50.2988 0 
784 1 18.15 52.3945 0 
785 1 19.36 50.2988 0 
786 1 20.57 52.3945 0 
787 1 21.78 50.2988 0 
788 1 22.99 52.3945 0 
789 1 24.2 50.2988 0 
790 1 25.41 52.3945 0 
791 1 26.62 50.2988 0 
792 1 27.83 52.3945 0 
793 1 29.04 50.2988 0 
794 1 30.25 52.3945 0 
795 1 31.46 50.2988 0 
796 1 32.67 52.3945 0 
797 1 33.88 50.2988 0 
798 1 35.09 52.3945 0 
799 1 36.3 50.2988 0 
800 1 37.51 52.3945 0 
801 1 38.72 50.2988 0 
802 1 39.93 52.3945 0 
803 1 41.14 50.2988 0 
804 1 42.35 52.3945 0 
805 1 43.56 50.2988 0 
806 1 44.77 52.3945 0 
807 1 45.98 50.2988 0 
808 1 47.19 52.3945 0 
809 1 48.4 50.2988 0 
810 1 49.61 52.3945 0 
811 1 50.82 50.2988 0 
812 1 52.03 52.3945 0 
813 1 53.24 50.2988 0 
814 1 54.45 52.3945 0 
815 1 55.66 50.2988 0 
816 1 56.87 52.3945 0 
817 1 58.08 50.2988 0 
818 1 59.29 52.3945 0 
819 1 60.5 50.2988 0 
820 1 61.71 52.3945 0 
821 1 62.92 50.2988 0 
822 1 64.13 52.3945 0 
823 1 65.34 50.2988 0 
824 1 66.55 52.3945 0 
825 1 67.76 50.2988 0 
826 1 68.97 52.3945 0 
827 1 70.18 50.2988 0 
828 1 71.39 52.3945 0 
829 1 72.6 50.2988 0 
830 1 73.81 52.3945 0 
831 1 75.02 50.2988 0 
832 1 76.23 52.3945 0 
833 1 0 54.4903 0 
834 1 1.21 56.5861 0 
835 1 2.42 54.4903 0 
836 1 3.63 56.5861 0 
837 1 4.84 54.4903 0 
838 1 6.05 56.5861 0 
839 1 7.26 54.4903 0 
840 1 8.47 56.5861 0 
841 1 9.68 54.4903 0 
842 1 10.89 56.5861 0 
843 1 12.1 54.4903 0 
844 1 13.31 56.5861 0 
845 1 14.52 54.4903 0 
846 1 15.73 56.5861 0 
847 1 16.94 54.4903 0 
848 1 18.15 56.5861 0 
849 1 19.36 54.4903 0 
850 1 20.57 56.5861 0 
851 1 21.78 54.4903 0 
852 1 22.99 56.5861 0 
853 1 24.2 54.4903 0 
854 1 25.41 56.5861 0 
855 1 26.62 54.4903 0 
856 1 27.83 56.5861 0 
857 1 29.04 54.4903 0 
858 1 30.25 56.5861 0 
859 1 31.46 54.4903 0 
860 1 32.67 56.5861 0 
861 1 33.88 54.4903 0 
862 1 35.09 56.5861 0 
863 1 36.3 54.4903 0 
864 1 37.51 56.5861 0 
865 1 38.72 54.4903 0 
866 1 39.93 56.5861 0 
867 1 41.14 54.4903 0 
868 1 42.35 56.5861 0 
869 1 43.56 54.4903 0 
870 1 44.77 56.5861 0 
871 1 45.98 54.4903 0 
872 1 47.19 56.5861 0 
873 1 48.4 54.4903 0 
874 1 49.61 56.5861 0 
875 1 50.82 54.4903 0 
876 1 52.03 56.5861 0 
877 1 53.24 54.4903 0 
878 1 54.45 56.5861 0 
879 1 55.66 54.4903 0 
880 1 56.87 56.5861 0 
881 1 58.08 54.4903 0 
882 1 59.29 56.5861 0 
883 1 60.5 54.4903 0 
884 1 61.71 56.5861 0 
885 1 62.92 54.4903 0 
886 1 64.13 56.5861 0 
887 1 65.34 54.4903 0 
888 1 66.55 56.5861 0 
889 1 67.76 54.4903 0 
890 1 68.97 56.5861 0 
891 1 70.18 54.4903 0 
892 1 71.39 56.5861 0 
893 1 72.6 54.4903 0 
894 1 73.81 56.5861 0 
895 1 75.02 54.4903 0 
896 1 76.23 56.5861 0 
897 1 0 58.6819 0 
898 1 1.21 60.7777 0 
899 1 2.42 58.6819 0 
900 1 3.63 60.7777 0 
901 1 4.84 58.6819 0 
902 1 6.05 60.7777 0 
903 1 7.26 58.6819 0 
904 1 8.47 60.7777 0 
905 1 9.68 58.6819 0 
906 1 10.89 60.7777 0 
907 1 12.1 58.6819 0 
908 1 13.31 60.7777 0 
909 1 14.52 58.6819 0 
910 1 15.73 60.7777 0 
911 1 16.94 58.6819 0 
912 1 18.15 60.7777 0 
913 1 19.36 58.6819 0 
914 1 20.57 60.7777 0 
915 1 21.78 58.6819 0 
916 1 22.99 60.7777 0 
917 1 24.2 58.6819 0 
918 1 25.41 60.7777 0 
919 1 26.62 58.6819 0 
920 1 27.83 60.7777 0 
921 1 29.04 58.6819 0 
922 1 30.25 60.7777 0 
923 1 31.46 58.6819 0 
924 1 32.67 60.7777 0 
925 1 33.88 58.6819 0 
926 1 35.09 60.7777 0 
927 1 36.3 58.6819 0 
928 1 37.51 60.7777 0 
929 1 38.72 58.6819 0 
930 1 39.93 60.7777 0 
931 1 41.14 58.6819 0 
932 1 42.35 60.7777 0 
933 1 43.56 58.6819 0 
934 1 44.77 60.7777 0 
935 1 45.98 58.6819 0 
936 1 47.19 60.7777 0 
937 1 48.4 58.6819 0 
938 1 49.61 60.7777 0 
939 1 50.82 58.6819 0 
940 1 52.03 60.7777 0 
941 1 53.24 58.6819 0 
942 1 54.45 60.7777 0 
943 1 55.66 58.6819 0 
944 1 56.87 60.7777 0 
945 1 58.08 58.6819 0 
946 1 59.29 60.7777 0 
947 1 60.5 58.6819 0 
948 1 61.71 60.7777 0 
949 1 62.92 58.6819 0 
950 1 64.13 60.7777 0 
951 1 65.34 58.6819 0 
952 1 66.55 60.7777 0 
953 1 67.76 58.6819 0 
954 1 68.97 60.7777 0 
955 1 70.18 58.6819 0 
956 1 71.39 60.7777 0 
957 1 72.6 58.6819 0 
958 1 73.81 60.7777 0 
959 1 75.02 58.6819 0 
960 1 76.23 60.7777 0 
961 1 0 62.8734 0 
962 1 1.21 64.9692 0 
963 1 2.42 62.8734 0 
964 1 3.63 64.9692 0 
965 1 4.84 62.8734 0 
966 1 6.05 64.9692 0 
967 1 7.26 62.8734 0 
968 1 8.47 64.9692 0 
969 1 9.68 62.8734 0 
970 1 10.89 64.9692 0 
971 1 12.1 62.8734 0 
972 1 13.31 64.9692 0 
973 1 14.52 62.8734 0 
974 1 15.73 64.9692 0 
975 1 16.94 62.8734 0 
976 1 18.15 64.9692 0 
977 1 19.36 62.8734 0 
978 1 20.57 64.9692 0 
979 1 21.78 62.8734 0 
980 1 22.99 64.9692 0 
981 1 24.2 62.8734 0 
982 1 25.41 64.9692 0 
983 1 26.62 62.8734 0 
984 1 27.83 64.9692 0 
985 1 29.04 62.8734 0 
986 1 30.25 64.9692 0 
987 1 31.46 62.8734 0 
988 1 32.67 64.9692 0 
989 1 33.88 62.8734 0 
990 1 35.09 64.9692 0 
991 1 36.3 62.8734 0 
992 1 37.51 64.9692 0 
993 1 38.72 62.8734 0 
994 1 39.93 64.9692 0 
995 1 41.14 62.8734 0 
996 1 42.35 64.9692 0 
997 1 43.56 62.8734 0 
998 1 44.77 64.9692 0 
999 1 45.98 62.8734 0 
1000 1 47.19 64.9692 0 
1001 1 48.4 62.8734 0 
1002 1 49.61 64.9692 0 
1003 1 50.82 62.8734 0 
1004 1 52.03 64.9692 0 
1005 1 53.24 62.8734 0 
1006 1 54.45 64.9692 0 
1007 1 55.66 62.8734 0 
1008 1 56.87 64.9692 0 
1009 1 58.08 62.8734 0 
1010 1 59.29 64.9692 0 
1011 1 60.5 62.8734 0 
1012 1 61.71 64.9692 0 
1013 1 62.92 62.8734 0 
1014 1 64.13 64.9692 0 
1015 1 65.34 62.8734 0 
1016 1 66.55 64.9692 0 
1017 1 67.76 62.8734 0 
1018 1 68.97 64.9692 0 
1019 1 70.18 62.8734 0 
1020 1 71.39 64.9692 0 
1021 1 72.6 62.8734 0 
1022 1 73.81 64.9692 0 
1023 1 75.02 62.8734 0 
1024 1 76.23 64.9692 0 
1025 1 0 67.065 0 
1026 1 1.21 69.1608 0 
1027 1 2.42 67.065 0 
1028 1 3.63 69.1608 0 
1029 1 4.84 67.065 0 
1030 1 6.05 69.1608 0 
1031 1 7.26 67.065 0 
1032 1 8.47 69.1608 0 
1033 1 9.68 67.065 0 
1034 1 10.89 69.1608 0 
1035 1 12.1 67.065 0 
1036 1 13.31 69.1608 0 
1037 1 14.52 67.065 0 
1038 1 15.73 69.1608 0 
1039 1 16.94 67.065 0 
1040 1 18.15 69.1608 0 
1041 1 19.36 67.065 0 
1042 1 20.57 69.1608 0 
1043 1 21.78 67.065 0 
1044 1 22.99 69.1608 0 
1045 1 24.2 67.065 0 
1046 1 25.41 69.1608 0 
1047 1 26.62 67.065 0 
1048 1 27.83 69.1608 0 
1049 1 29.04 67.065 0 
1050 1 30.25 69.1608 0 
1051 1 31.46 67.065 0 
1052 1 32.67 69.1608 0 
1053 1 33.88 67.065 0 
1054 1 35.09 69.1608 0 
1055 1 36.3 67.065 0 
1056 1 37.51 69.1608 0 
1057 1 38.72 67.065 0 
1058 1 39.93 69.1608 0 
1059 1 41.14 67.065 0 
1060 1 42.35 69.1608 0 
1061 1 43.56 67.065 0 
1062 1 44.77 69.1608 0 
1063 1 45.98 67.065 0 
1064 1 47.19 69.1608 0 
1065 1 48.4 67.065 0 
1066 1 49.61 69.1608 0 
1067 1 50.82 67.065 0 
1068 1 52.03 69.1608 0 
1069 1 53.24 67.065 0 
1070 1 54.45 69.1608 0 
1071 1 55.66 67.065 0 
1072 1 56.87 69.1608 0 
1073 1 58.08 67.065 0 
1074 1 59.29 69.1608 0 
1075 1 60.5 67.065 0 
1076 1 61.71 69.1608 0 
1077 1 62.92 67.065 0 
1078 1 64.13 69.1608 0 
1079 1 65.34 67.065 0 
1080 1 66.55 69.1608 0 
1081 1 67.76 67.065 0 
1082 1 68.97 69.1608 0 
1083 1 70.18 67.065 0 
1084 1 71.39 69.1608 0 
1085 1 72.6 67.065 0 
1086 1 73.81 69.1608 0 
1087 1 75.02 67.065 0 
1088 1 76.23 69.1608 0 
1089 1 0 71.2566 0 
1090 1 1.21 73.3524 0 
1091 1 2.42 71.2566 0 
1092 1 3.63 73.3524 0 
1093 1 4.84 71.2566 0 
1094 1 6.05 73.3524 0 
1095 1 7.26 71.2566 0 
1096 1 8.47 73.3524 0 
1097 1 9.68 71.2566 0 
1098 1 10.89 73.3524 0 
1099 1 12.1 71.2566 0 
1100 1 13.31 73.3524 0 
1101 1 14.52 71.2566 0 
1102 1 15.73 73.3524 0 
1103 1 16.94 71.2566 0 
1104 1 18.15 73.3524 0 
1105 1 19.36 71.2566 0 
1106 1 20.57 73.3524 0 
1107 1 21.78 71.2566 0 
1108 1 22.99 73.3524 0 
1109 1 24.2 71.2566 0 
1110 1 25.41 73.3524 0 
1111 1 26.62 71.2566 0 
1112 1 27.83 73.3524 0 
1113 1 29.04 71.2566 0 
1114 1 30.25 73.3524 0 
1115 1 31.46 71.2566 0 
1116 1 32.67 73.3524 0 
1117 1 33.88 71.2566 0 
1118 1 35.09 73.3524 0 
1119 1 36.3 71.2566 0 
1120 1 37.51 73.3524 0 
1121 1 38.72 71.2566 0 
1122 1 39.93 73.3524 0 
1123 1 41.14 71.2566 0 
1124 1 42.35 73.3524 0 
1125 1 43.56 71.2566 0 
1126 1 44.77 73.3524 0 
1127 1 45.98 71.2566 0 
1128 1 47.19 73.3524 0 
1129 1 48.4 71.2566 0 
1130 1 49.61 73.3524 0 
1131 1 50.82 71.2566 0 
1132 1 52.03 73.3524 0 
1133 1 53.24 71.2566 0 
1134 1 54.45 73.3524 0 
1135 1 55.66 71.2566 0 
1136 1 56.87 73.3524 0 
1137 1 58.08 71.2566 0 
1138 1 59.29 73.3524 0 
1139 1 60.5 71.2566 0 
1140 1 61.71 73.3524 0 
1141 1 62.92 71.2566 0 
1142 1 64.13 73.3524 0 
1143 1 65.34 71.2566 0 
1144 1 66.55 73.3524 0 
1145 1 67.76 71.2566 0 
1146 1 68.97 73.3524 0 
1147 1 70.18 71.2566 0 
1148 1 71.39 73.3524 0 
1149 1 72.6 71.2566 0 
1150 1 73.81 73.3524 0 
1151 1 75.02 71.2566 0 
1152 1 76.23 73.3524 0 
1153 1 0 75.4481 0 
1154 1 1.21 77.5439 0 
1155 1 2.42 75.4481 0 
1156 1 3.63 77.5439 0 
1157 1 4.84 75.4481 0 
1158 1 6.05 77.5439 0 
1159 1 7.26 75.4481 0 
1160 1 8.47 77.5439 0 
1161 1 9.68 75.4481 0 
1162 1 10.89 77.5439 0 
1163 1 12.1 75.4481 0 
1164 1 13.31 77.5439 0 
1165 1 14.52 75.4481 0 
1166 1 15.73 77.5439 0 
1167 1 16.94 75.4481 0 
1168 1 18.15 77.5439 0 
1169 1 19.36 75.4481 0 
1170 1 20.57 77.5439 0 
1171 1 21.78 75.4481 0 
1172 1 22.99 77.5439 0 
1173 1 24.2 75.4481 0 
1174 1 25.41 77.5439 0 
1175 1 26.62 75.4481 0 
1176 1 27.83 77.5439 0 
1177 1 29.04 75.4481 0 
1178 1 30.25 77.5439 0 
1179 1 31.46 75.4481 0 
1180 1 32.67 77.5439 0 
1181 1 33.88 75.4481 0 
1182 1 35.09 77.5439 0 
1183 1 36.3 75.4481 0 
1184 1 37.51 77.5439 0 
1185 1 38.72 75.4481 0 
1186 1 39.93 77.5439 0 
1187 1 41.14 75.4481 0 
1188 1 42.35 77.5439 0 
1189 1 43.56 75.4481 0 
1190 1 44.77 77.5439 0 
1191 1 45.98 75.4481 0 
1192 1 47.19 77.5439 0 
1193 1 48.4 75.4481 0 
1194 1 49.61 77.5439 0 
1195 1 50.82 75.4481 0 
1196 1 52.03 77.5439 0 
1197 1 53.24 75.4481 0 
1198 1 54.45 77.5439 0 
1199 1 55.66 75.4481 0 
1200 1 56.87 77.5439 0 
1201 1 58.08 75.4481 0 
1202 1 59.29 77.5439 0 
1203 1 60.5 75.4481 0 
1204 1 61.71 77.5439 0 
1205 1 62.92 75.4481 0 
1206 1 64.13 77.5439 0 
1207 1 65.34 75.4481 0 
1208 1 66.55 77.5439 0 
1209 1 67.76 75.4481 0 
1210 1 68.97 77.5439 0 
1211 1 70.18 75.4481 0 
1212 1 71.39 77.5439 0 
1213 1 72.6 75.4481 0 
1214 1 73.81 77.5439 0 
1215 1 75.02 75.4481 0 
1216 1 76.23 77.5439 0 
1217 1 0 79.6397 0 
1218 1 1.21 81.7355 0 
1219 1 2.42 79.6397 0 
1220 1 3.63 81.7355 0 
1221 1 4.84 79.6397 0 
1222 1 6.05 81.7355 0 
1223 1 7.26 79.6397 0 
1224 1 8.47 81.7355 0 
1225 1 9.68 79.6397 0 
1226 1 10.89 81.7355 0 
1227 1 12.1 79.6397 0 
1228 1 13.31 81.7355 0 
1229 1 14.52 79.6397 0 
1230 1 15.73 81.7355 0 
1231 1 16.94 79.6397 0 
1232 1 18.15 81.7355 0 
1233 1 19.36 79.6397 0 
1234 1 20.57 81.7355 0 
1235 1 21.78 79.6397 0 
1236 1 22.99 81.7355 0 
1237 1 24.2 79.6397 0 
1238 1 25.41 81.7355 0 
1239 1 26.62 79.6397 0 
1240 1 27.83 81.7355 0 
1241 1 29.04 79.6397 0 
1242 1 30.25 81.7355 0 
1243 1 31.46 79.6397 0 
1244 1 32.67 81.7355 0 
1245 1 33.88 79.6397 0 
1246 1 35.09 81.7355 0 
1247 1 36.3 79.6397 0 
1248 1 37.51 81.7355 0 
1249 1 38.72 79.6397 0 
1250 1 39.93 81.7355 0 
1251 1 41.14 79.6397 0 
1252 1 42.35 81.7355 0 
1253 1 43.56 79.6397 0 
1254 1 44.77 81.7355 0 
1255 1 45.98 79.6397 0 
1256 1 47.19 81.7355 0 
1257 1 48.4 79.6397 0 
1258 1 49.61 81.7355 0 
1259 1 50.82 79.6397 0 
1260 1 52.03 81.7355 0 
1261 1 53.24 79.6397 0 
1262 1 54.45 81.7355 0 
1263 1 55.66 79.6397 0 
1264 1 56.87 81.7355 0 
1265 1 58.08 79.6397 0 
1266 1 59.29 81.7355 0 
1267 1 60.5 79.6397 0 
1268 1 61.71 81.7355 0 
1269 1 62.92 79.6397 0 
1270 1 64.13 81.7355 0 
1271 1 65.34 79.6397 0 
1272 1 66.55 81.7355 0 
1273 1 67.76 79.6397 0 
1274 1 68.97 81.7355 0 
1275 1 70.18 79.6397 0 
1276 1 71.39 81.7355 0 
1277 1 72.6 79.6397 0 
1278 1 73.81 81.7355 0 
1279 1 75.02 79.6397 0 
1280 1 76.23 81.7355 0 
1281 1 0 83.8313 0 
1282 1 1.21 85.927 0 
1283 1 2.42 83.8313 0 
1284 1 3.63 85.927 0 
1285 1 4.84 83.8313 0 
1286 1 6.05 85.927 0 
1287 1 7.26 83.8313 0 
1288 1 8.47 85.927 0 
1289 1 9.68 83.8313 0 
1290 1 10.89 85.927 0 
1291 1 12.1 83.8313 0 
1292 1 13.31 85.927 0 
1293 1 14.52 83.8313 0 
1294 1 15.73 85.927 0 
1295 1 16.94 83.8313 0 
1296 1 18.15 85.927 0 
1297 1 19.36 83.8313 0 
1298 1 20.57 85.927 0 
1299 1 21.78 83.8313 0 
1300 1 22.99 85.927 0 
1301 1 24.2 83.8313 0 
1302 1 25.41 85.927 0 
1303 1 26.62 83.8313 0 
1304 1 27.83 85.927 0 
1305 1 29.04 83.8313 0 
1306 1 30.25 85.927 0 
1307 1 31.46 83.8313 0 
1308 1 32.67 85.927 0 
1309 1 33.88 83.8313 0 
1310 1 35.09 85.927 0 
1311 1 36.3 83.8313 0 
1312 1 37.51 85.927 0 
1313 1 38.72 83.8313 0 
1314 1 39.93 85.927 0 
1315 1 41.14 83.8313 0 
1316 1 42.35 85.927 0 
1317 1 43.56 83.8313 0 
1318 1 44.77 85.927 0 
1319 1 45.98 83.8313 0 
1320 1 47.19 85.927 0 
1321 1 48.4 83.8313 0 
1322 1 49.61 85.927 0 
1323 1 50.82 83.8313 0 
1324 1 52.03 85.927 0 
1325 1 53.24 83.8313 0 
1326 1 54.45 85.927 0 
1327 1 55.66 83.8313 0 
1328 1 56.87 85.927 0 
1329 1 58.08 83.8313 0 
1330 1 59.29 85.927 0 
1331 1 60.5 83.8313 0 
1332 1 61.71 85.927 0 
1333 1 62.92 83.8313 0 
1334 1 64.13 85.927 0 
1335 1 65.34 83.8313 0 
1336 1 66.55 85.927 0 
1337 1 67.76 83.8313 0 
1338 1 68.97 85.927 0 
1339 1 70.18 83.8313 0 
1340 1 71.39 85.927 0 
1341 1 72.6 83.8313 0 
1342 1 73.81 85.927 0 
1343 1 75.02 83.8313 0 
1344 1 76.23 85.927 0 
1345 1 0 88.0228 0 
1346 1 1.21 90.1186 0 
1347 1 2.42 88.0228 0 
1348 1 3.63 90.1186 0 
1349 1 4.84 88.0228 0 
1350 1 6.05 90.1186 0 
1351 1 7.26 88.0228 0 
1352 1 8.47 90.1186 0 
1353 1 9.68 88.0228 0 
1354 1 10.89 90.1186 0 
1355 1 12.1 88.0228 0 
1356 1 13.31 90.1186 0 
1357 1 14.52 88.0228 0 
1358 1 15.73 90.1186 0 
1359 1 16.94 88.0228 0 
1360 1 18.15 90.1186 0 
1361 1 19.36 88.0228 0 
1362 1 20.57 90.1186 0 
1363 1 21.78 88.0228 0 
1364 1 22.99 90.1186 0 
1365 1 24.2 88.0228 0 
1366 1 25.41 90.1186 0 
1367 1 26.62 88.0228 0 
1368 1 27.83 90.1186 0 
1369 1 29.04 88.0228 0 
1370 1 30.25 90.1186 0 
1371 1 31.46 88.0228 0 
1372 1 32.67 90.1186 0 
1373 1 33.88 88.0228 0 
1374 1 35.09 90.1186 0 
1375 1 36.3 88.0228 0 
1376 1 37.51 90.1186 0 
1377 1 38.72 88.0228 0 
1378 1 39.93 90.1186 0 
1379 1 41.14 88.0228 0 
1380 1 42.35 90.1186 0 
1381 1 43.56 88.0228 0 
1382 1 44.77 90.1186 0 
1383 1 45.98 88.0228 0 
1384 1 47.19 90.1186 0 
1385 1 48.4 88.0228 0 
1386 1 49.61 90.1186 0 
1387 1 50.82 88.0228 0 
1388 1 52.03 90.1186 0 
1389 1 53.24 88.0228 0 
1390 1 54.45 90.1186 0 
1391 1 55.66 88.0228 0 
1392 1 56.87 90.1186 0 
1393 1 58.08 88.0228 0 
1394 1 59.29 90.1186 0 
1395 1 60.5 88.0228 0 
1396 1 61.71 90.1186 0 
1397 1 62.92 88.0228 0 
1398 1 64.13 90.1186 0 
1399 1 65.34 88.0228 0 
1400 1 66.55 90.1186 0 
1401 1 67.76 88.0228 0 
1402 1 68.97 90.1186 0 
1403 1 70.18 88.0228 0 
1404 1 71.39 90.1186 0 
1405 1 72.6 88.0228 0 
1406 1 73.81 90.1186 0 
1407 1 75.02 88.0228 0 
1408 1 76.23 90.1186 0 
1409 1 0 92.2144 0 
1410 1 1.21 94.3102 0 
1411 1 2.42 92.2144 0 
1412 1 3.63 94.3102 0 
1413 1 4.84 92.2144 0 
1414 1 6.05 94.3102 0 
1415 1 7.26 92.2144 0 
1416 1 8.47 94.3102 0 
1417 1 9.68 92.2144 0 
1418 1 10.89 94.3102 0 
1419 1 12.1 92.2144 0 
1420 1 13.31 94.3102 0 
1421 1 14.52 92.2144 0 
1422 1 15.73 94.3102 0 
1423 1 16.94 92.2144 0 
1424 1 18.15 94.3102 0 
1425 1 19.36 92.2144 0 
1426 1 20.57 94.3102 0 
1427 1 21.78 92.2144 0 
1428 1 22.99 94.3102 0 
1429 1 24.2 92.2144 0 
1430 1 25.41 94.3102 0 
1431 1 26.62 92.2144 0 
1432 1 27.83 94.3102 0 
1433 1 29.04 92.2144 0 
1434 1 30.25 94.3102 0 
1435 1 31.46 92.2144 0 
1436 1 32.67 94.3102 0 
1437 1 33.88 92.2144 0 
1438 1 35.09 94.3102 0 
1439 1 36.3 92.2144 0 
1440 1 37.51 94.3102 0 
1441 1 38.72 92.2144 0 
1442 1 39.93 94.3102 0 
1443 1 41.14 92.2144 0 
1444 1 42.35 94.3102 0 
1445 1 43.56 92.2144 0 
1446 1 44.77 94.3102 0 
1447 1 45.98 92.2144 0 
1448 1 47.19 94.3102 0 
1449 1 48.4 92.2144 0 
1450 1 49.61 94.3102 0 
1451 1 50.82 92.2144 0 
1452 1 52.03 94.3102 0 
1453 1 53.24 92.2144 0 
1454 1 54.45 94.3102 0 
1455 1 55.66 92.2144 0 
1456 1 56.87 94.3102 0 
1457 1 58.08 92.2144 0 
1458 1 59.29 94.3102 0 
1459 1 60.5 92.2144 0 
1460 1 61.71 94.3102 0 
1461 1 62.92 92.2144 0 
1462 1 64.13 94.3102 0 
1463 1 65.34 92.2144 0 
1464 1 66.55 94.3102 0 
1465 1 67.76 92.2144 0 
1466 1 68.97 94.3102 0 
1467 1 70.18 92.2144 0 
1468 1 71.39 94.3102 0 
1469 1 72.6 92.2144 0 
1470 1 73.81 94.3102 0 
1471 1 75.02 92.2144 0 
1472 1 76.23 94.3102 0 
1473 3 0 96.4059 0 
1474 3 1.21 98.5017 0 
1475 3 2.42 96.4059 0 
1476 3 3.63 98.5017 0 
1477 3 4.84 96.4059 0 
1478 3 6.05 98.5017 0 
1479 3 7.26 96.4059 0 
1480 3 8.47 98.5017 0 
1481 3 9.68 96.4059 0 
1482 3 10.89 98.5017 0 
1483 3 12.1 96.4059 0 
1484 3 13.31 98.5017 0 
1485 3 14.52 96.4059 0 
1486 3 15.73 98.5017 0 
1487 3 16.94 96.4059 0 
1488 3 18.15 98.5017 0 
1489 3 19.36 96.4059 0 
1490 3 20.57 98.5017 0 
1491 3 21.78 96.4059 0 
1492 3 22.99 98.5017 0 
1493 3 24.2 96.4059 0 
1494 3 25.41 98.5017 0 
1495 3 26.62 96.4059 0 
1496 3 27.83 98.5017 0 
1497 3 29.04 96.4059 0 
1498 3 30.25 98.5017 0 
1499 3 31.46 96.4059 0 
1500 3 32.67 98.5017 0 
1501 3 33.88 96.4059 0 
1502 3 35.09 98.5017 0 
1503 3 36.3 96.4059 0 
1504 3 37.51 98.5017 0 
1505 3 38.72 96.4059 0 
1506 3 39.93 98.5017 0 
1507 3 41.14 96.4059 0 
1508 3 42.35 98.5017 0 
1509 3 43.56 96.4059 0 
1510 3 44.77 98.5017 0 
1511 3 45.98 96.4059 0 
1512 3 47.19 98.5017 0 
1513 3 48.4 96.4059 0 
1514 3 49.61 98.5017 0 
1515 3 50.82 96.4059 0 
1516 3 52.03 98.5017 0 
1517 3 53.24 96.4059 0 
1518 3 54.45 98.5017 0 
1519 3 55.66 96.4059 0 
1520 3 56.87 98.5017 0 
1521 3 58.08 96.4059 0 
1522 3 59.29 98.5017 0 
1523 3 60.5 96.4059 0 
1524 3 61.71 98.5017 0 
1525 3 62.92 96.4059 0 
1526 3 64.13 98.5017 0 
1527 3 65.34 96.4059 0 
1528 3 66.55 98.5017 0 
1529 3 67.76 96.4059 0 
1530 3 68.97 98.5017 0 
1531 3 70.18 96.4059 0 
1532 3 71.39 98.5017 0 
1533 3 72.6 96.4059 0 
1534 3 73.81 98.5017 0 
1535 3 75.02 96.4059 0 
1536 3 76.23 98.5017 0 
ITEM: TIMESTEP
4 8.02159e+10
ITEM: NUMBER OF ATOMS
1536
ITEM: BOX BOUNDS
0 77.44
0 100.598
-1.21 1.21
ITEM: ATOMS id type x y z
1 2 0 0 0 
2 2 1.21 2.09578 0 
3 2 2.42 0 0 
4 2 3.63 2.09578 0 
5 2 4.84 0 0 
6 2 6.05 2.09578 0 
7 2 7.26 0 0 
8 2 8.47 2.09578 0 
9 2 9.68 0 0 
10 2 10.89 2.09578 0 
11 2 12.1 0 0 
12 2 13.31 2.09578 0 
13 2 14.52 0 0 
14 2 15.73 2.09578 0 
15 2 16.94 0 0 
16 2 18.15 2.09578 0 
17 2 19.36 0 0 
18 2 20.57 2.09578 0 
19 2 21.78 0 0 
20 2 22.99 2.09578 0 
21 2 24.2 0 0 
22 2 25.41 2.09578 0 
23 2 26.62 0 0 
24 2 27.83 2.09578 0 
25 2 29.04 0 0 
26 2 30.25 2.09578 0 
27 2 31.46 0 0 
28 2 32.67 2.09578 0 
29 2 33.88 0 0 
30 2 35.09 2.09578 0 
31 2 36.3 0 0 
32 2 37.51 2.09578 0 
33 2 38.72 0 0 
34 2 39.93 2.09578 0 
35 2 41.14 0 0 
36 2 42.35 2.09578 0 
37 2 43.56 0 0 
38 2 44.77 2.09578 0 
39 2 45.98 0 0 
40 2 47.19 2.09578 0 
41 2 48.4 0 0 
42 2 49.61 2.09578 0 
43 2 50.82 0 0 
44 2 52.03 2.09578 0 
45 2 53.24 0 0 
46 2 54.45 2.09578 0 
47 2 55.66 0 0 
48 2 56.87 2.09578 0 
49 2 58.08 0 0 
50 2 59.29 2.09578 0 
51 2 60.5 0 0 
52 2 61.71 2.09578 0 
53 2 62.92 0 0 
54 2 64.13 2.09578 0 
55 2 65.34 0 0 
56 2 66.55 2.09578 0 
57 2 67.76 0 0 
58 2 68.97 2.09578 0 
59 2 70.18 0 0 
60 2 71.39 2.09578 0 
61 2 72.6 0 0 
62 2 73.81 2.09578 0 
63 2 75.02 0 0 
64 2 76.23 2.09578 0 
65 2 0 4.19156 0 
66 2 1.21 6.28734 0 
67 2 2.42 4.19156 0 
68 2 3.63 6.28734 0 
69 2 4.84 4.19156 0 
70 2 6.05 6.28734 0 
71 2 7.26 4.19156 0 
72 2 8.47 6.28734 0 
73 2 9.68 4.19156 0 
74 2 10.89 6.28734 0 
75 2 12.1 4.19156 0 
76 2 13.31 6.28734 0 
77 2 14.52 4.19156 0 
78 2 15.73 6.28734 0 
79 2 16.94 4.19156 0 
80 2 18.15 6.28734 0 
81 2 19.36 4.19156 0 
82 2 20.57 6.28734 0 
83 2 21.78 4.19156 0 
84 2 22.99 6.28734 0 
85 2 24.2 4.19156 0 
86 2 25.41 6.28734 0 
87 2 26.62 4.19156 0 
88 2 27.83 6.28734 0 
89 2 29.04 4.19156 0 
90 2 30.25 6.28734 0 
91 2 31.46 4.19156 0 
92 2 32.67 6.28734 0 
93 2 33.88 4.19156 0 
94 2 35.09 6.28734 0 
95 2 36.3 4.19156 0 
96 2 37.51 6.28734 0 
97 2 38.72 4.19156 0 
98 2 39.93 6.28734 0 
99 2 41.14 4.19156 0 
100 2 42.35 6.28734 0 
101 2 43.56 4.19156 0 
102 2 44.77 6.28734 0 
103 2 45.98 4.19156 0 
104 2 47.19 6.28734 0 
105 2 48.4 4.19156 0 
106 2 49.61 6.28734 0 
107 2 50.82 4.19156 0 
108 2 52.03 6.28734 0 
109 2 53.24 4.19156 0 
110 2 54.45 6.28734 0 
111 2 55.66 4.19156 0 
112 2 56.87 6.28734 0 
113 2 58.08 4.19156 0 
114 2 59.29 6.28734 0 
115 2 60.5 4.19156 0 
116 1 61.71 6.28734 0 
117 2 62.92 4.19156 0 
118 1 64.13 6.28734 0 
119 2 65.34 4.19156 0 
120 2 66.55 6.28734 0 
121 2 67.76 4.19156 0 
122 2 68.97 6.28734 0 
123 2 70.18 4.19156 0 
124 2 71.39 6.28734 0 
125 2 72.6 4.19156 0 
126 2 73.81 6.28734 0 
127 2 75.02 4.19156 0 
128 2 76.23 6.28734 0 
129 2 0 8.38313 0 
130 2 1.21 10.4789 0 
131 2 2.42 8.38313 0 
132 1 3.63 10.4789 0 
133 2 4.84 8.38313 0 
134 1 6.05 10.4789 0 
135 2 7.26 8.38313 0 
136 2 8.47 10.4789 0 
137 2 9.68 8.38313 0 
138 2 10.89 10.4789 0 
139 2 12.1 8.38313 0 
140 2 13.31 10.4789 0 
141 2 14.52 8.38313 0 
142 2 15.73 10.4789 0 
143 2 16.94 8.38313 0 
144 2 18.15 10.4789 0 
145 2 19.36 8.38313 0 
146 2 20.57 10.4789 0 
147 2 21.78 8.38313 0 
148 2 22.99 10.4789 0 
149 2 24.2 8.38313 0 
150 2 25.41 10.4789 0 
151 2 26.62 8.38313 0 
152 2 27.83 10.4789 0 
153 2 29.04 8.38313 0 
154 2 30.25 10.4789 0 
155 2 31.46 8.38313 0 
156 2 32.67 10.4789 0 
157 2 33.88 8.38313 0 
158 2 35.09 10.4789 0 
159 2 36.3 8.38313 0 
160 2 37.51 10.4789 0 
161 2 38.72 8.38313 0 
162 2 39.93 10.4789 0 
163 2 41.14 8.38313 0 
164 2 42.35 10.4789 0 
165 2 43.56 8.38313 0 
166 2 44.77 10.4789 0 
167 2 45.98 8.38313 0 
168 2 47.19 10.4789 0 
169 2 48.4 8.38313 0 
170 2 49.61 10.4789 0 
171 2 50.82 8.38313 0 
172 2 52.03 10.4789 0 
173 2 53.24 8.38313 0 
174 2 54.45 10.4789 0 
175 2 55.66 8.38313 0 
176 2 56.87 10.4789 0 
177 2 58.08 8.38313 0 
178 1 59.29 10.4789 0 
179 1 60.5 8.38313 0 
180 1 61.71 10.4789 0 
181 1 62.92 8.38313 0 
182 1 64.13 10.4789 0 
183 2 65.34 8.38313 0 
184 2 66.55 10.4789 0 
185 2 67.76 8.38313 0 
186 2 68.97 10.4789 0 
187 2 70.18 8.38313 0 
188 2 71.39 10.4789 0 
189 2 72.6 8.38313 0 
190 2 73.81 10.4789 0 
191 2 75.02 8.38313 0 
192 2 76.23 10.4789 0 
193 2 0 12.5747 0 
194 2 1.21 14.6705 0 
195 1 2.42 12.5747 0 
196 1 3.63 14.6705 0 
197 1 4.84 12.5747 0 
198 1 6.05 14.6705 0 
199 1 7.26 12.5747 0 
200 1 8.47 14.6705 0 
201 2 9.68 12.5747 0 
202 1 10.89 14.6705 0 
203 2 12.1 12.5747 0 
204 1 13.31 14.6705 0 
205 2 14.52 12.5747 0 
206 1 15.73 14.6705 0 
207 2 16.94 12.5747 0 
208 2 18.15 14.6705 0 
209 2 19.36 12.5747 0 
210 2 20.57 14.6705 0 
211 2 21.78 12.5747 0 
212 2 22.99 14.6705 0 
213 2 24.2 12.5747 0 
214 2 25.41 14.6705 0 
215 2 26.62 12.5747 0 
216 2 27.83 14.6705 0 
217 2 29.04 12.5747 0 
218 2 30.25 14.6705 0 
219 2 31.46 12.5747 0 
220 2 32.67 14.6705 0 
221 2 33.88 12.5747 0 
222 2 35.09 14.6705 0 
223 2 36.3 12.5747 0 
224 2 37.51 14.6705 0 
225 2 38.72 12.5747 0 
226 2 39.93 14.6705 0 
227 2 41.14 12.5747 0 
228 2 42.35 14.6705 0 
229 2 43.56 12.5747 0 
230 2 44.77 14.6705 0 
231 2 45.98 12.5747 0 
232 2 47.19 14.6705 0 
233 2 48.4 12.5747 0 
234 1 49.61 14.6705 0 
235 2 50.82 12.5747 0 
236 1 52.03 14.6705 0 
237 2 53.24 12.5747 0 
238 1 54.45 14.6705 0 
239 2 55.66 12.5747 0 
240 1 56.87 14.6705 0 
241 1 58.08 12.5747 0 
242 1 59.29 14.6705 0 
243 1 60.5 12.5747 0 
244 1 61.71 14.6705 0 
245 1 62.92 12.5747 0 
246 1 64.13 14.6705 0 
247 1 65.34 12.5747 0 
248 1 66.55 14.6705 0 
249 2 67.76 12.5747 0 
250 2 68.97 14.6705 0 
251 2 70.18 12.5747 0 
252 2 71.39 14.6705 0 
253 2 72.6 12.5747 0 
254 2 73.81 14.6705 0 
255 2 75.02 12.5747 0 
256 2 76.23 14.6705 0 
257 2 0 16.7663 0 
258 2 1.21 18.862 0 
259 2 2.42 16.7663 0 
260 1 3.63 18.862 0 
261 1 4.84 16.7663 0 
262 1 6.05 18.862 0 
263 1 7.26 16.7663 0 
264 1 8.47 18.862 0 
265 1 9.68 16.7663 0 
266 1 10.89 18.862 0 
267 1 12.1 16.7663 0 
268 1 13.31 18.862 0 
269 1 14.52 16.7663 0 
270 1 15.73 18.862 0 
271 1 16.94 16.7663 0 
272 1 18.15 18.862 0 
273 1 19.36 16.7663 0 
274 1 20.57 18.862 0 
275 2 21.78 16.7663 0 
276 1 22.99 18.862 0 
277 2 24.2 16.7663 0 
278 2 25.41 18.862 0 
279 2 26.62 16.7663 0 
280 2 27.83 18.862 0 
281 2 29.04 16.7663 0 
282 1 30.25 18.862 0 
283 1 31.46 16.7663 0 
284 1 32.67 18.862 0 
285 2 33.88 16.7663 0 
286 1 35.09 18.862 0 
287 2 36.3 16.7663 0 
288 1 37.51 18.862 0 
289 2 38.72 16.7663 0 
290 2 39.93 18.862 0 
291 2 41.14 16.7663 0 
292 2 42.35 18.862 0 
293 2 43.56 16.7663 0 
294 2 44.77 18.862 0 
295 2 45.98 16.7663 0 
296 2 47.19 18.862 0 
297 1 48.4 16.7663 0 
298 1 49.61 18.862 0 
299 1 50.82 16.7663 0 
300 1 52.03 18.862 0 
301 1 53.24 16.7663 0 
302 1 54.45 18.862 0 
303 1 55.66 16.7663 0 
304 1 56.87 18.862 0 
305 1 58.08 16.7663 0 
306 1 59.29 18.862 0 
307 1 60.5 16.7663 0 
308 1 61.71 18.862 0 
309 1 62.92 16.7663 0 
310 1 64.13 18.862 0 
311 1 65.34 16.7663 0 
312 1 66.55 18.862 0 
313 2 67.76 16.7663 0 
314 1 68.97 18.862 0 
315 2 70.18 16.7663 0 
316 2 71.39 18.862 0 
317 2 72.6 16.7663 0 
318 2 73.81 18.862 0 
319 2 75.02 16.7663 0 
320 2 76.23 18.862 0 
321 2 0 20.9578 0 
322 2 1.21 23.0536 0 
323 2 2.42 20.9578 0 
324 1 3.63 23.0536 0 
325 1 4.84 20.9578 0 
326 1 6.05 23.0536 0 
327 1 7.26 20.9578 0 
328 1 8.47 23.0536 0 
329 1 9.68 20.9578 0 
330 1 10.89 23.0536 0 
331 1 12.1 20.9578 0 
332 1 13.31 23.0536 0 
333 1 14.52 20.9578 0 
334 1 15.73 23.0536 0 
335 1 16.94 20.9578 0 
336 1 18.15 23.0536 0 
337 1 19.36 20.9578 0 
338 1 20.57 23.0536 0 
339 1 21.78 20.9578 0 
340 1 22.99 23.0536 0 
341 1 24.2 20.9578 0 
342 1 25.41 23.0536 0 
343 1 26.62 20.9578 0 
344 1 27.83 23.0536 0 
345 1 29.04 20.9578 0 
346 1 30.25 23.0536 0 
347 1 31.46 20.9578 0 
348 1 32.67 23.0536 0 
349 1 33.88 20.9578 0 
350 1 35.09 23.0536 0 
351 1 36.3 20.9578 0 
352 1 37.51 23.0536 0 
353 1 38.72 20.9578 0 
354 1 39.93 23.0536 0 
355 1 41.14 20.9578 0 
356 1 42.35 23.0536 0 
357 1 43.56 20.9578 0 
358 1 44.77 23.0536 0 
359 2 45.98 20.9578 0 
360 2 47.19 23.0536 0 
361 2 48.4 20.9578 0 
362 2 49.61 23.0536 0 
363 1 50.82 20.9578 0 
364 1 52.03 23.0536 0 
365 1 53.24 20.9578 0 
366 1 54.45 23.0536 0 
367 1 55.66 20.9578 0 
368 1 56.87 23.0536 0 
369 1 58.08 20.9578 0 
370 1 59.29 23.0536 0 
371 1 60.5 20.9578 0 
372 1 61.71 23.0536 0 
373 1 62.92 20.9578 0 
374 1 64.13 23.0536 0 
375 1 65.34 20.9578 0 
376 1 66.55 23.0536 0 
377 1 67.76 20.9578 0 
378 1 68.97 23.0536 0 
379 1 70.18 20.9578 0 
380 1 71.39 23.0536 0 
381 1 72.6 20.9578 0 
382 1 73.81 23.0536 0 
383 2 75.02 20.9578 0 
384 2 76.23 23.0536 0 
385 1 0 25.1494 0 
386 1 1.21 27.2452 0 
387 1 2.42 25.1494 0 
388 1 3.63 27.2452 0 
389 1 4.84 25.1494 0 
390 1 6.05 27.2452 0 
391 1 7.26 25.1494 0 
392 1 8.47 27.2452 0 
393 1 9.68 25.1494 0 
394 1 10.89 27.2452 0 
395 1 12.1 25.1494 0 
396 1 13.31 27.2452 0 
397 1 14.52 25.1494 0 
398 1 15.73 27.2452 0 
399 1 16.94 25.1494 0 
400 1 18.15 27.2452 0 
401 1 19.36 25.1494 0 
402 1 20.57 27.2452 0 
403 1 21.78 25.1494 0 
404 1 22.99 27.2452 0 
405 1 24.2 25.1494 0 
406 1 25.41 27.2452 0 
407 1 26.62 25.1494 0 
408 1 27.83 27.2452 0 
409 1 29.04 25.1494 0 
410 1 30.25 27.2452 0 
411 1 31.46 25.1494 0 
412 1 32.67 27.2452 0 
413 1 33.88 25.1494 0 
414 1 35.09 27.2452 0 
415 1 36.3 25.1494 0 
416 1 37.51 27.2452 0 
417 1 38.72 25.1494 0 
418 1 39.93 27.2452 0 
419 1 41.14 25.1494 0 
420 1 42.35 27.2452 0 
421 1 43.56 25.1494 0 
422 1 44.77 27.2452 0 
423 1 45.98 25.1494 0 
424 1 47.19 27.2452 0 
425 2 48.4 25.1494 0 
426 1 49.61 27.2452 0 
427 2 50.82 25.1494 0 
428 1 52.03 27.2452 0 
429 1 53.24 25.1494 0 
430 1 54.45 27.2452 0 
431 1 55.66 25.1494 0 
432 1 56.87 27.2452 0 
433 1 58.08 25.1494 0 
434 1 59.29 27.2452 0 
435 1 60.5 25.1494 0 
436 1 61.71 27.2452 0 
437 1 62.92 25.1494 0 
438 1 64.13 27.2452 0 
439 1 65.34 25.1494 0 
440 1 66.55 27.2452 0 
441 1 67.76 25.1494 0 
442 1 68.97 27.2452 0 
443 1 70.18 25.1494 0 
444 1 71.39 27.2452 0 
445 1 72.6 25.1494 0 
446 1 73.81 27.2452 0 
447 1 75.02 25.1494 0 
448 1 76.23 27.2452 0 
449 1 0 29.3409 0 
450 1 1.21 31.4367 0 
451 1 2.42 29.3409 0 
452 1 3.63 31.4367 0 
453 1 4.84 29.3409 0 
454 1 6.05 31.4367 0 
455 1 7.26 29.3409 0 
456 1 8.47 31.4367 0 
457 1 9.68 29.3409 0 
458 1 10.89 31.4367 0 
459 1 12.1 29.3409 0 
460 1 13.31 31.4367 0 
461 1 14.52 29.3409 0 
462 1 15.73 31.4367 0 
463 1 16.94 29.3409 0 
464 1 18.15 31.4367 0 
465 1 19.36 29.3409 0 
466 1 20.57 31.4367 0 
467 1 21.78 29.3409 0 
468 1 22.99 31.4367 0 
469 1 24.2 29.3409 0 
470 1 25.41 31.4367 0 
471 1 26.62 29.3409 0 
472 1 27.83 31.4367 0 
473 1 29.04 29.3409 0 
474 1 30.25 31.4367 0 
475 1 31.46 29.3409 0 
476 1 32.67 31.4367 0 
477 1 33.88 29.3409 0 
478 1 35.09 31.4367 0 
479 1 36.3 29.3409 0 
480 1 37.51 31.4367 0 
481 1 38.72 29.3409 0 
482 1 39.93 31.4367 0 
483 1 41.14 29.3409 0 
484 1 42.35 31.4367 0 
485 1 43.56 29.3409 0 
486 1 44.77 31.4367 0 
487 1 45.98 29.3409 0 
488 1 47.19 31.4367 0 
489 1 48.4 29.3409 0 
490 1 49.61 31.4367 0 
491 1 50.82 29.3409 0 
492 1 52.03 31.4367 0 
493 1 53.24 29.3409 0 
494 1 54.45 31.4367 0 
495 1 55.66 29.3409 0 
496 1 56.87 31.4367 0 
497 1 58.08 29.3409 0 
498 1 59.29 31.4367 0 
499 1 60.5 29.3409 0 
500 1 61.71 31.4367 0 
501 1 62.92 29.3409 0 
502 1 64.13 31.4367 0 
503 1 65.34 29.3409 0 
504 1 66.55 31.4367 0 
505 1 67.76 29.3409 0 
506 1 68.97 31.4367 0 
507 1 70.18 29.3409 0 
508 1 71.39 31.4367 0 
509 1 72.6 29.3409 0 
510 1 73.81 31.4367 0 
511 1 75.02 29.3409 0 
512 1 76.23 31.4367 0 
513 1 0 33.5325 0 
514 1 1.21 35.6283 0 
515 1 2.42 33.5325 0 
516 1 3.63 35.6283 0 
517 1 4.84 33.5325 0 
518 1 6.05 35.6283 0 
519 1 7.26 33.5325 0 
520 1 8.47 35.6283 0 
521 1 9.68 33.5325 0 
522 1 10.89 35.6283 0 
523 1 12.1 33.5325 0 
524 1 13.31 35.6283 0 
525 1 14.52 33.5325 0 
526 1 15.73 35.6283 0 
527 1 16.94 33.5325 0 
528 1 18.15 35.6283 0 
529 1 19.36 33.5325 0 
530 1 20.57 35.6283 0 
531 1 21.78 33.5325 0 
532 1 22.99 35.6283 0 
533 1 24.2 33.5325 0 
534 1 25.41 35.6283 0 
535 1 26.62 33.5325 0 
536 1 27.83 35.6283 0 
537 1 29.04 33.5325 0 
538 1 30.25 35.6283 0 
539 1 31.46 33.5325 0 
540 1 32.67 35.6283 0 
541 1 33.88 33.5325 0 
542 1 35.09 35.6283 0 
543 1 36.3 33.5325 0 
544 1 37.51 35.6283 0 
545 1 38.72 33.5325 0 
546 1 39.93 35.6283 0 
547 1 41.14 33.5325 0 
548 1 42.35 35.6283 0 
549 1 43.56 33.5325 0 
550 1 44.77 35.6283 0 
551 1 45.98 33.5325 0 
552 1 47.19 35.6283 0 
553 1 48.4 33.5325 0 
554 1 49.61 35.6283 0 
555 1 50.82 33.5325 0 
556 1 52.03 35.6283 0 
557 1 53.24 33.5325 0 
558 1 54.45 35.6283 0 
559 1 55.66 33.5325 0 
560 1 56.87 35.6283 0 
561 1 58.08 33.5325 0 
562 1 59.29 35.6283 0 
563 1 60.5 33.5325 0 
564 1 61.71 35.6283 0 
565 1 62.92 33.5325 0 
566 1 64.13 35.6283 0 
567 1 65.34 33.5325 0 
568 1 66.55 35.6283 0 
569 1 67.76 33.5325 0 
570 1 68.97 35.6283 0 
571 1 70.18 33.5325 0 
572 1 71.39 35.6283 0 
573 1 72.6 33.5325 0 
574 1 73.81 35.6283 0 
575 1 75.02 33.5325 0 
576 1 76.23 35.6283 0 
577 1 0 37.7241 0 
578 1 1.21 39.8198 0 
579 1 2.42 37.7241 0 
580 1 3.63 39.8198 0 
581 1 4.84 37.7241 0 
582 1 6.05 39.8198 0 
583 1 7.26 37.7241 0 
584 1 8.47 39.8198 0 
585 1 9.68 37.7241 0 
586 1 10.89 39.8198 0 
587 1 12.1 37.7241 0 
588 1 13.31 39.8198 0 
589 1 14.52 37.7241 0 
590 1 15.73 39.8198 0 
591 1 16.94 37.7241 0 
592 1 18.15 39.8198 0 
593 1 19.36 37.7241 0 
594 1 20.57 39.8198 0 
595 1 21.78 37.7241 0 
596 1 22.99 39.8198 0 
597 1 24.2 37.7241 0 
598 1 25.41 39.8198 0 
599 1 26.62 37.7241 0 
600 1 27.83 39.8198 0 
601 1 29.04 37.7241 0 
602 1 30.25 39.8198 0 
603 1 31.46 37.7241 0 
604 1 32.67 39.8198 0 
605 1 33.88 37.7241 0 
606 1 35.09 39.8198 0 
607 1 36.3 37.7241 0 
608 1 37.51 39.8198 0 
609 1 38.72 37.7241 0 
610 1 39.93 39.8198 0 
611 1 41.14 37.7241 0 
612 1 42.35 39.8198 0 
613 1 43.56 37.7241 0 
614 1 44.77 39.8198 0 
615 1 45.98 37.7241 0 
616 1 47.19 39.8198 0 
617 1 48.4 37.7241 0 
618 1 49.61 39.8198 0 
619 1 50.82 37.7241 0 
620 1 52.03 39.8198 0 
621 1 53.24 37.7241 0 
622 1 54.45 39.8198 0 
623 1 55.66 37.7241 0 
624 1 56.87 39.8198 0 
625 1 58.08 37.7241 0 
626 1 59.29 39.8198 0 
627 1 60.5 37.7241 0 
628 1 61.71 39.8198 0 
629 1 62.92 37.7241 0 
630 1 64.13 39.8198 0 
631 1 65.34 37.7241 0 
632 1 66.55 39.8198 0 
633 1 67.76 37.7241 0 
634 1 68.97 39.8198 0 
635 1 70.18 37.7241 0 
636 1 71.39 39.8198 0 
637 1 72.6 37.7241 0 
638 1 73.81 39.8198 0 
639 1 75.02 37.7241 0 
640 1 76.23 39.8198 0 
641 1 0 41.9156 0 
642 1 1.21 44.0114 0 
643 1 2.42 41.9156 0 
644 1 3.63 44.0114 0 
645 1 4.84 41.9156 0 
646 1 6.05 44.0114 0 
647 1 7.26 41.9156 0 
648 1 8.47 44.0114 0 
649 1 9.68 41.9156 0 
650 1 10.89 44.0114 0 
651 1 12.1 41.9156 0 
652 1 13.31 44.0114 0 
653 1 14.52 41.9156 0 
654 1 15.73 44.0114 0 
655 1 16.94 41.9156 0 
656 1 18.15 44.0114 0 
657 1 19.36 41.9156 0 
658 1 20.57 44.0114 0 
659 1 21.78 41.9156 0 
660 1 22.99 44.0114 0 
661 1 24.2 41.9156 0 
662 1 25.41 44.0114 0 
663 1 26.62 41.9156 0 
664 1 27.83 44.0114 0 
665 1 29.04 41.9156 0 
666 1 30.25 44.0114 0 
667 1 31.46 41.9156 0 
668 1 32.67 44.0114 0 
669 1 33.88 41.9156 0 
670 1 35.09 44.0114 0 
671 1 36.3 41.9156 0 
672 1 37.51 44.0114 0 
673 1 38.72 41.9156 0 
674 1 39.93 44.0114 0 
675 1 41.14 41.9156 0 
676 1 42.35 44.0114 0 
677 1 43.56 41.9156 0 
678 1 44.77 44.0114 0 
679 1 45.98 41.9156 0 
680 1 47.19 44.0114 0 
681 1 48.4 41.9156 0 
682 1 49.61 44.0114 0 
683 1 50.82 41.9156 0 
684 1 52.03 44.0114 0 
685 1 53.24 41.9156 0 
686 1 54.45 44.0114 0 
687 1 55.66 41.9156 0 
688 1 56.87 44.0114 0 
689 1 58.08 41.9156 0 
690 1 59.29 44.0114 0 
691 1 60.5 41.9156 0 
692 1 61.71 44.0114 0 
693 1 62.92 41.9156 0 
694 1 64.13 44.0114 0 
695 1 65.34 41.9156 0 
696 1 66.55 44.0114 0 
697 1 67.76 41.9156 0 
698 1 68.97 44.0114 0 
699 1 70.18 41.9156 0 
700 1 71.39 44.0114 0 
701 1 72.6 41.9156 0 
702 1 73.81 44.0114 0 
703 1 75.02 41.9156 0 
704 1 76.23 44.0114 0 
705 1 0 46.1072 0 
706 1 1.21 48.203 0 
707 1 2.42 46.1072 0 
708 1 3.63 48.203 0 
709 1 4.84 46.1072 0 
710 1 6.05 48.203 0 
711 1 7.26 46.1072 0 
712 1 8.47 48.203 0 
713 1 9.68 46.1072 0 
714 1 10.89 48.203 0 
715 1 12.1 46.1072 0 
716 1 13.31 48.203 0 
717 1 14.52 46.1072 0 
718 1 15.73 48.203 0 
719 1 16.94 46.1072 0 
720 1 18.15 48.203 0 
721 1 19.36 46.1072 0 
722 1 20.57 48.203 0 
723 1 21.78 46.1072 0 
724 1 22.99 48.203 0 
725 1 24.2 46.1072 0 
726 1 25.41 48.203 0 
727 1 26.62 46.1072 0 
728 1 27.83 48.203 0 
729 1 29.04 46.1072 0 
730 1 30.25 48.203 0 
731 1 31.46 46.1072 0 
732 1 32.67 48.203 0 
733 1 33.88 46.1072 0 
734 1 35.09 48.203 0 
735 1 36.3 46.1072 0 
736 1 37.51 48.203 0 
737 1 38.72 46.1072 0 
738 1 39.93 48.203 0 
739 1 41.14 46.1072 0 
740 1 42.35 48.203 0 
741 1 43.56 46.1072 0 
742 1 44.77 48.203 0 
743 1 45.98 46.1072 0 
744 1 47.19 48.203 0 
745 1 48.4 46.1072 0 
746 1 49.61 48.203 0 
747 1 50.82 46.1072 0 
748 1 52.03 48.203 0 
749 1 53.24 46.1072 0 
750 1 54.45 48.203 0 
751 1 55.66 46.1072 0 
752 1 56.87 48.203 0 
753 1 58.08 46.1072 0 
754 1 59.29 48.203 0 
755 1 60.5 46.1072 0 
756 1 61.71 48.203 0 
757 1 62.92 46.1072 0 
758 1 64.13 48.203 0 
759 1 65.34 46.1072 0 
760 1 66.55 48.203 0 
761 1 67.76 46.1072 0 
762 1 68.97 48.203 0 
763 1 70.18 46.1072 0 
764 1 71.39 48.203 0 
765 1 72.6 46.1072 0 
766 1 73.81 48.203 0 
767 1 75.02 46.1072 0 
768 1 76.23 48.203 0 
769 1 0 50.2988 0 
770 1 1.21 52.3945 0 
771 1 2.42 50.2988 0 
772 1 3.63 52.3945 0 
773 1 4.84 50.2988 0 
774 1 6.05 52.3945 0 
775 1 7.26 50.2988 0 
776 1 8.47 52.3945 0 
777 1 9.68 50.2988 0 
778 1 10.89 52.3945 0 
779 1 12.1 50.2988 0 
780 1 13.31 52.3945 0 
781 1 14.52 50.2988 0 
782 1 15.73 52.3945 0 
783 1 16.94 50.2988 0 
784 1 18.15 52.3945 0 
785 1 19.36 50.2988 0 
786 1 20.57 52.3945 0 
787 1 21.78 50.2988 0 
788 1 22.99 52.3945 0 
789 1 24.2 50.2988 0 
790 1 25.41 52.3945 0 
791 1 26.62 50.2988 0 
792 1 27.83 52.3945 0 
793 1 29.04 50.2988 0 
794 1 30.25 52.3945 0 
795 1 31.46 50.2988 0 
796 1 32.67 52.3945 0 
797 1 33.88 50.2988 0 
798 1 35.09 52.3945 0 
799 1 36.3 50.2988 0 
800 1 37.51 52.3945 0 
801 1 38.72 50.2988 0 
802 1 39.93 52.3945 0 
803 1 41.14 50.2988 0 
804 1 42.35 52.3945 0 
805 1 43.56 50.2988 0 
806 1 44.77 52.3945 0 
807 1 45.98 50.2988 0 
808 1 47.19 52.3945 0 
809 1 48.4 50.2988 0 
810 1 49.61 52.3945 0 
811 1 50.82 50.2988 0 
812 1 52.03 52.3945 0 
813 1 53.24 50.2988 0 
814 1 54.45 52.3945 0 
815 1 55.66 50.2988 0 
816 1 56.87 52.3945 0 
817 1 58.08 50.2988 0 
818 1 59.29 52.3945 0 
819 1 60.5 50.2988 0 
820 1 61.71 52.3945 0 
821 1 62.92 50.2988 0 
822 1 64.13 52.3945 0 
823 1 65.34 50.2988 0 
824 1 66.55 52.3945 0 
825 1 67.76 50.2988 0 
826 1 68.97 52.3945 0 
827 1 70.18 50.2988 0 
828 1 71.39 52.3945 0 
829 1 72.6 50.2988 0 
830 1 73.81 52.3945 0 
831 1 75.02 50.2988 0 
832 1 76.23 52.3945 0 
833 1 0 54.4903 0 
834 1 1.21 56.5861 0 
835 1 2.42 54.4903 0 
836 1 3.63 56.5861 0 
837 1 4.84 54.4903 0 
838 1 6.05 56.5861 0 
839 1 7.26 54.4903 0 
840 1 8.47 56.5861 0 
841 1 9.68 54.4903 0 
842 1 10.89 56.5861 0 
843 1 12.1 54.4903 0 
844 1 13.31 56.5861 0 
845 1 14.52 54.4903 0 
846 1 15.73 56.5861 0 
847 1 16.94 54.4903 0 
848 1 18.15 56.5861 0 
849 1 19.36 54.4903 0 
850 1 20.57 56.5861 0 
851 1 21.78 54.4903 0 
852 1 22.99 56.5861 0 
853 1 24.2 54.4903 0 
854 1 25.41 56.5861 0 
855 1 26.62 54.4903 0 
856 1 27.83 56.5861 0 
857 1 29.04 54.4903 0 
858 1 30.25 56.5861 0 
859 1 31.46 54.4903 0 
860 1 32.67 56.5861 0 
861 1 33.88 54.4903 0 
862 1 35.09 56.5861 0 
863 1 36.3 54.4903 0 
864 1 37.51 56.5861 0 
865 1 38.72 54.4903 0 
866 1 39.93 56.5861 0 
867 1 41.14 54.4903 0 
868 1 42.35 56.5861 0 
869 1 43.56 54.4903 0 
870 1 44.77 56.5861 0 
871 1 45.98 54.4903 0 
872 1 47.19 56.5861 0 
873 1 48.4 54.4903 0 
874 1 49.61 56.5861 0 
875 1 50.82 54.4903 0 
876 1 52.03 56.5861 0 
877 1 53.24 54.4903 0 
878 1 54.45 56.5861 0 
879 1 55.66 54.4903 0 
880 1 56.87 56.5861 0 
881 1 58.08 54.4903 0 
882 1 59.29 56.5861 0 
883 1 60.5 54.4903 0 
884 1 61.71 56.5861 0 
885 1 62.92 54.4903 0 
886 1 64.13 56.5861 0 
887 1 65.34 54.4903 0 
888 1 66.55 56.5861 0 
889 1 67.76 54.4903 0 
890 1 68.97 56.5861 0 
891 1 70.18 54.4903 0 
892 1 71.39 56.5861 0 
893 1 72.6 54.4903 0 
894 1 73.81 56.5861 0 
895 1 75.02 54.4903 0 
896 1 76.23 56.5861 0 
897 1 0 58.6819 0 
898 1 1.21 60.7777 0 
899 1 2.42 58.6819 0 
900 1 3.63 60.7777 0 
901 1 4.84 58.6819 0 
902 1 6.05 60.7777 0 
903 1 7.26 58.6819 0 
904 1 8.47 60.7777 0 
905 1 9.68 58.6819 0 
906 1 10.89 60.7777 0 
907 1 12.1 58.6819 0 
908 1 13.31 60.7777 0 
909 1 14.52 58.6819 0 
910 1 15.73 60.7777 0 
911 1 16.94 58.6819 0 
912 1 18.15 60.7777 0 
913 1 19.36 58.6819 0 
914 1 20.57 60.7777 0 
915 1 21.78 58.6819 0 
916 1 22.99 60.7777 0 
917 1 24.2 58.6819 0 
918 1 25.41 60.7777 0 
919 1 26.62 58.6819 0 
920 1 27.83 60.7777 0 
921 1 29.04 58.6819 0 
922 1 30.25 60.7777 0 
923 1 31.46 58.6819 0 
924 1 32.67 60.7777 0 
925 1 33.88 58.6819 0 
926 1 35.09 60.7777 0 
927 1 36.3 58.6819 0 
928 1 37.51 60.7777 0 
929 1 38.72 58.6819 0 
930 1 39.93 60.7777 0 
931 1 41.14 58.6819 0 
932 1 42.35 60.7777 0 
933 1 43.56 58.6819 0 
934 1 44.77 60.7777 0 
935 1 45.98 58.6819 0 
936 1 47.19 60.7777 0 
937 1 48.4 58.6819 0 
938 1 49.61 60.7777 0 
939 1 50.82 58.6819 0 
940 1 52.03 60.7777 0 
941 1 53.24 58.6819 0 
942 1 54.45 60.7777 0 
943 1 55.66 58.6819 0 
944 1 56.87 60.7777 0 
945 1 58.08 58.6819 0 
946 1 59.29 60.7777 0 
947 1 60.5 58.6819 0 
948 1 61.71 60.7777 0 
949 1 62.92 58.6819 0 
950 1 64.13 60.7777 0 
951 1 65.34 58.6819 0 
952 1 66.55 60.7777 0 
953 1 67.76 58.6819 0 
954 1 68.97 60.7777 0 
955 1 70.18 58.6819 0 
956 1 71.39 60.7777 0 
957 1 72.6 58.6819 0 
958 1 73.81 60.7777 0 
959 1 75.02 58.6819 0 
960 1 76.23 60.7777 0 
961 1 0 62.8734 0 
962 1 1.21 64.9692 0 
963 1 2.42 62.8734 0 
964 1 3.63 64.9692 0 
965 1 4.84 62.8734 0 
966 1 6.05 64.9692 0 
967 1 7.26 62.8734 0 
968 1 8.47 64.9692 0 
969 1 9.68 62.8734 0 
970 1 10.89 64.9692 0 
971 1 12.1 62.8734 0 
972 1 13.31 64.9692 0 
973 1 14.52 62.8734 0 
974 1 15.73 64.9692 0 
975 1 16.94 62.8734 0 
976 1 18.15 64.9692 0 
977 1 19.36 62.8734 0 
978 1 20.57 64.9692 0 
979 1 21.78 62.8734 0 
980 1 22.99 64.9692 0 
981 1 24.2 62.8734 0 
982 1 25.41 64.9692 0 
983 1 26.62 62.8734 0 
984 1 27.83 64.9692 0 
985 1 29.04 62.8734 0 
986 1 30.25 64.9692 0 
987 1 31.46 62.8734 0 
988 1 32.67 64.9692 0 
989 1 33.88 62.8734 0 
990 1 35.09 64.9692 0 
991 1 36.3 62.8734 0 
992 1 37.51 64.9692 0 
993 1 38.72 62.8734 0 
994 1 39.93 64.9692 0 
995 1 41.14 62.8734 0 
996 1 42.35 64.9692 0 
997 1 43.56 62.8734 0 
998 1 44.77 64.9692 0 
999 1 45.98 62.8734 0 
1000 1 47.19 64.9692 0 
1001 1 48.4 62.8734 0 
1002 1 49.61 64.9692 0 
1003 1 50.82 62.8734 0 
1004 1 52.03 64.9692 0 
1005 1 53.24 62.8734 0 
1006 1 54.45 64.9692 0 
1007 1 55.66 62.8734 0 
1008 1 56.87 64.9692 0 
1009 1 58.08 62.8734 0 
1010 1 59.29 64.9692 0 
1011 1 60.5 62.8734 0 
1012 1 61.71 64.9692 0 
1013 1 62.92 62.8734 0 
1014 1 64.13 64.9692 0 
1015 1 65.34 62.8734 0 
1016 1 66.55 64.9692 0 
1017 1 67.76 62.8734 0 
1018 1 68.97 64.9692 0 
1019 1 70.18 62.8734 0 
1020 1 71.39 64.9692 0 
1021 1 72.6 62.8734 0 
1022 1 73.81 64.9692 0 
1023 1 75.02 62.8734 0 
1024 1 76.23 64.9692 0 
1025 1 0 67.065 0 
1026 1 1.21 69.1608 0 
1027 1 2.42 67.065 0 
1028 1 3.63 69.1608 0 
1029 1 4.84 67.065 0 
1030 1 6.05 69.1608 0 
1031 1 7.26 67.065 0 
1032 1 8.47 69.1608 0 
1033 1 9.68 67.065 0 
1034 1 10.89 69.1608 0 
1035 1 12.1 67.065 0 
1036 1 13.31 69.1608 0 
1037 1 14.52 67.065 0 
1038 1 15.73 69.1608 0 
1039 1 16.94 67.065 0 
1040 1 18.15 69.1608 0 
1041 1 19.36 67.065 0 
1042 1 20.57 69.1608 0 
1043 1 21.78 67.065 0 
1044 1 22.99 69.1608 0 
1045 1 24.2 67.065 0 
1046 1 25.41 69.1608 0 
1047 1 26.62 67.065 0 
1048 1 27.83 69.1608 0 
1049 1 29.04 67.065 0 
1050 1 30.25 69.1608 0 
1051 1 31.46 67.065 0 
1052 1 32.67 69.1608 0 
1053 1 33.88 67.065 0 
1054 1 35.09 69.1608 0 
1055 1 36.3 67.065 0 
1056 1 37.51 69.1608 0 
1057 1 38.72 67.065 0 
1058 1 39.93 69.1608 0 
1059 1 41.14 67.065 0 
1060 1 42.35 69.1608 0 
1061 1 43.56 67.065 0 
1062 1 44.77 69.1608 0 
1063 1 45.98 67.065 0 
1064 1 47.19 69.1608 0 
1065 1 48.4 67.065 0 
1066 1 49.61 69.1608 0 
1067 1 50.82 67.065 0 
1068 1 52.03 69.1608 0 
1069 1 53.24 67.065 0 
1070 1 54.45 69.1608 0 
1071 1 55.66 67.065 0 
1072 1 56.87 69.1608 0 
1073 1 58.08 67.065 0 
1074 1 59.29 69.1608 0 
1075 1 60.5 67.065 0 
1076 1 61.71 69.1608 0 
1077 1 62.92 67.065 0 
1078 1 64.13 69.1608 0 
1079 1 65.34 67.065 0 
1080 1 66.55 69.1608 0 
1081 1 67.76 67.065 0 
1082 1 68.97 69.1608 0 
1083 1 70.18 67.065 0 
1084 1 71.39 69.1608 0 
1085 1 72.6 67.065 0 
1086 1 73.81 69.1608 0 
1087 1 75.02 67.065 0 
1088 1 76.23 69.1608 0 
1089 1 0 71.2566 0 
1090 1 1.21 73.3524 0 
1091 1 2.42 71.2566 0 
1092 1 3.63 73.3524 0 
1093 1 4.84 71.2566 0 
1094 1 6.05 73.3524 0 
1095 1 7.26 71.2566 0 
1096 1 8.47 73.3524 0 
1097 1 9.68 71.2566 0 
1098 1 10.89 73.3524 0 
1099 1 12.1 71.2566 0 
1100 1 13.31 73.3524 0 
1101 1 14.52 71.2566 0 
1102 1 15.73 73.3524 0 
1103 1 16.94 71.2566 0 
1104 1 18.15 73.3524 0 
1105 1 19.36 71.2566 0 
1106 1 20.57 73.3524 0 
1107 1 21.78 71.2566 0 
1108 1 22.99 73.3524 0 
1109 1 24.2 71.2566 0 
1110 1 25.41 73.3524 0 
1111 1 26.62 71.2566 0 
1112 1 27.83 73.3524 0 
1113 1 29.04 71.2566 0 
1114 1 30.25 73.3524 0 
1115 1 31.46 71.2566 0 
1116 1 32.67 73.3524 0 
1117 1 33.88 71.2566 0 
1118 1 35.09 73.3524 0 
1119 1 36.3 71.2566 0 
1120 1 37.51 73.3524 0 
1121 1 38.72 71.2566 0 
1122 1 39.93 73.3524 0 
1123 1 41.14 71.2566 0 
1124 1 42.35 73.3524 0 
1125 1 43.56 71.2566 0 
1126 1 44.77 73.3524 0 
1127 1 45.98 71.2566 0 
1128 1 47.19 73.3524 0 
1129 1 48.4 71.2566 0 
1130 1 49.61 73.3524 0 
1131 1 50.82 71.2566 0 
1132 1 52.03 73.3524 0 
1133 1 53.24 71.2566 0 
1134 1 54.45 73.3524 0 
1135 1 55.66 71.2566 0 
1136 1 56.87 73.3524 0 
1137 1 58.08 71.2566 0 
1138 1 59.29 73.3524 0 
1139 1 60.5 71.2566 0 
1140 1 61.71 73.3524 0 
1141 1 62.92 71.2566 0 
1142 1 64.13 73.3524 0 
1143 1 65.34 71.2566 0 
1144 1 66.55 73.3524 0 
1145 1 67.76 71.2566 0 
1146 1 68.97 73.3524 0 
1147 1 70.18 71.2566 0 
1148 1 71.39 73.3524 0 
1149 1 72.6 71.2566 0 
1150 1 73.81 73.3524 0 
1151 1 75.02 71.2566 0 
1152 1 76.23 73.3524 0 
1153 1 0 75.4481 0 
1154 1 1.21 77.5439 0 
1155 1 2.42 75.4481 0 
1156 1 3.63 77.5439 0 
1157 1 4.84 75.4481 0 
1158 1 6.05 77.5439 0 
1159 1 7.26 75.4481 0 
1160 1 8.47 77.5439 0 
1161 1 9.68 75.4481 0 
1162 1 10.89 77.5439 0 
1163 1 12.1 75.4481 0 
1164 1 13.31 77.5439 0 
1165 1 14.52 75.4481 0 
1166 1 15.73 77.5439 0 
1167 1 16.94 75.4481 0 
1168 1 18.15 77.5439 0 
1169 1 19.36 75.4481 0 
1170 1 20.57 77.5439 0 
1171 1 21.78 75.4481 0 
1172 1 22.99 77.5439 0 
1173 1 24.2 75.4481 0 
1174 1 25.41 77.5439 0 
1175 1 26.62 75.4481 0 
1176 1 27.83 77.5439 0 
1177 1 29.04 75.4481 0 
1178 1 30.25 77.5439 0 
1179 1 31.46 75.4481 0 
1180 1 32.67 77.5439 0 
1181 1 33.88 75.4481 0 
1182 1 35.09 77.5439 0 
1183 1 36.3 75.4481 0 
1184 1 37.51 77.5439 0 
1185 1 38.72 75.4481 0 
1186 1 39.93 77.5439 0 
1187 1 41.14 75.4481 0 
1188 1 42.35 77.5439 0 
1189 1 43.56 75.4481 0 
1190 1 44.77 77.5439 0 
1191 1 45.98 75.4481 0 
1192 1 47.19 77.5439 0 
1193 1 48.4 75.4481 0 
1194 1 49.61 77.5439 0 
1195 1 50.82 75.4481 0 
1196 1 52.03 77.5439 0 
1197 1 53.24 75.4481 0 
1198 1 54.45 77.5439 0 
1199 1 55.66 75.4481 0 
1200 1 56.87 77.5439 0 
1201 1 58.08 75.4481 0 
1202 1 59.29 77.5439 0 
1203 1 60.5 75.4481 0 
1204 1 61.71 77.5439 0 
1205 1 62.92 75.4481 0 
1206 1 64.13 77.5439 0 
1207 1 65.34 75.4481 0 
1208 1 66.55 77.5439 0 
1209 1 67.76 75.4481 0 
1210 1 68.97 77.5439 0 
1211 1 70.18 75.4481 0 
1212 1 71.39 77.5439 0 
1213 1 72.6 75.4481 0 
1214 1 73.81 77.5439 0 
1215 1 75.02 75.4481 0 
1216 1 76.23 77.5439 0 
1217 1 0 79.6397 0 
1218 1 1.21 81.7355 0 
1219 1 2.42 79.6397 0 
1220 1 3.63 81.7355 0 
1221 1 4.84 79.6397 0 
1222 1 6.05 81.7355 0 
1223 1 7.26 79.6397 0 
1224 1 8.47 81.7355 0 
1225 1 9.68 79.6397 0 
1226 1 10.89 81.7355 0 
1227 1 12.1 79.6397 0 
1228 1 13.31 81.7355 0 
1229 1 14.52 79.6397 0 
1230 1 15.73 81.7355 0 
1231 1 16.94 79.6397 0 
1232 1 18.15 81.7355 0 
1233 1 19.36 79.6397 0 
1234 1 20.57 81.7355 0 
1235 1 21.78 79.6397 0 
1236 1 22.99 81.7355 0 
1237 1 24.2 79.6397 0 
1238 1 25.41 81.7355 0 
1239 1 26.62 79.6397 0 
1240 1 27.83 81.7355 0 
1241 1 29.04 79.6397 0 
1242 1 30.25 81.7355 0 
1243 1 31.46 79.6397 0 
1244 1 32.67 81.7355 0 
1245 1 33.88 79.6397 0 
1246 1 35.09 81.7355 0 
1247 1 36.3 79.6397 0 
1248 1 37.51 81.7355 0 
1249 1 38.72 79.6397 0 
1250 1 39.93 81.7355 0 
1251 1 41.14 79.6397 0 
1252 1 42.35 81.7355 0 
1253 1 43.56 79.6397 0 
1254 1 44.77 81.7355 0 
1255 1 45.98 79.6397 0 
1256 1 47.19 81.7355 0 
1257 1 48.4 79.6397 0 
1258 1 49.61 81.7355 0 
1259 1 50.82 79.6397 0 
1260 1 52.03 81.7355 0 
1261 1 53.24 79.6397 0 
1262 1 54.45 81.7355 0 
1263 1 55.66 79.6397 0 
1264 1 56.87 81.7355 0 
1265 1 58.08 79.6397 0 
1266 1 59.29 81.7355 0 
1267 1 60.5 79.6397 0 
1268 1 61.71 81.7355 0 
1269 1 62.92 79.6397 0 
1270 1 64.13 81.7355 0 
1271 1 65.34 79.6397 0 
1272 1 66.55 81.7355 0 
1273 1 67.76 79.6397 0 
1274 1 68.97 81.7355 0 
1275 1 70.18 79.6397 0 
1276 1 71.39 81.7355 0 
1277 1 72.6 79.6397 0 
1278 1 73.81 81.7355 0 
1279 1 75.02 79.6397 0 
1280 1 76.23 81.7355 0 
1281 1 0 83.8313 0 
1282 1 1.21 85.927 0 
1283 1 2.42 83.8313 0 
1284 1 3.63 85.927 0 
1285 1 4.84 83.8313 0 
1286 1 6.05 85.927 0 
1287 1 7.26 83.8313 0 
1288 1 8.47 85.927 0 
1289 1 9.68 83.8313 0 
1290 1 10.89 85.927 0 
1291 1 12.1 83.8313 0 
1292 1 13.31 85.927 0 
1293 1 14.52 83.8313 0 
1294 1 15.73 85.927 0 
1295 1 16.94 83.8313 0 
1296 1 18.15 85.927 0 
1297 1 19.36 83.8313 0 
1298 1 20.57 85.927 0 
1299 1 21.78 83.8313 0 
1300 1 22.99 85.927 0 
1301 1 24.2 83.8313 0 
1302 1 25.41 85.927 0 
1303 1 26.62 83.8313 0 
1304 1 27.83 85.927 0 
1305 1 29.04 83.8313 0 
1306 1 30.25 85.927 0 
1307 1 31.46 83.8313 0 
1308 1 32.67 85.927 0 
1309 1 33.88 83.8313 0 
1310 1 35.09 85.927 0 
1311 1 36.3 83.8313 0 
1312 1 37.51 85.927 0 
1313 1 38.72 83.8313 0 
1314 1 39.93 85.927 0 
1315 1 41.14 83.8313 0 
1316 1 42.35 85.927 0 
1317 1 43.56 83.8313 0 
1318 1 44.77 85.927 0 
1319 1 45.98 83.8313 0 
1320 1 47.19 85.927 0 
1321 1 48.4 83.8313 0 
1322 1 49.61 85.927 0 
1323 1 50.82 83.8313 0 
1324 1 52.03 85.927 0 
1325 1 53.24 83.8313 0 
1326 1 54.45 85.927 0 
1327 1 55.66 83.8313 0 
1328 1 56.87 85.927 0 
1329 1 58.08 83.8313 0 
1330 1 59.29 85.927 0 
1331 1 60.5 83.8313 0 
1332 1 61.71 85.927 0 
1333 1 62.92 83.8313 0 
1334 1 64.13 85.927 0 
1335 1 65.34 83.8313 0 
1336 1 66.55 85.927 0 
1337 1 67.76 83.8313 0 
1338 1 68.97 85.927 0 
1339 1 70.18 83.8313 0 
1340 1 71.39 85.927 0 
1341 1 72.6 83.8313 0 
1342 1 73.81 85.927 0 
1343 1 75.02 83.8313 0 
1344 1 76.23 85.927 0 
1345 1 0 88.0228 0 
1346 1 1.21 90.1186 0 
1347 1 2.42 88.0228 0 
1348 1 3.63 90.1186 0 
1349 1 4.84 88.0228 0 
1350 1 6.05 90.1186 0 
1351 1 7.26 88.0228 0 
1352 1 8.47 90.1186 0 
1353 1 9.68 88.0228 0 
1354 1 10.89 90.1186 0 
1355 1 12.1 88.0228 0 
1356 1 13.31 90.1186 0 
1357 1 14.52 88.0228 0 
1358 1 15.73 90.1186 0 
1359 1 16.94 88.0228 0 
1360 1 18.15 90.1186 0 
1361 1 19.36 88.0228 0 
1362 1 20.57 90.1186 0 
1363 1 21.78 88.0228 0 
1364 1 22.99 90.1186 0 
1365 1 24.2 88.0228 0 
1366 1 25.41 90.1186 0 
1367 1 26.62 88.0228 0 
1368 1 27.83 90.1186 0 
1369 1 29.04 88.0228 0 
1370 1 30.25 90.1186 0 
1371 1 31.46 88.0228 0 
1372 1 32.67 90.1186 0 
1373 1 33.88 88.0228 0 
1374 1 35.09 90.1186 0 
1375 1 36.3 88.0228 0 
1376 1 37.51 90.1186 0 
1377 1 38.72 88.0228 0 
1378 1 39.93 90.1186 0 
1379 1 41.14 88.0228 0 
1380 1 42.35 90.1186 0 
1381 1 43.56 88.0228 0 
1382 1 44.77 90.1186 0 
1383 1 45.98 88.0228 0 
1384 1 47.19 90.1186 0 
1385 1 48.4 88.0228 0 
1386 1 49.61 90.1186 0 
1387 1 50.82 88.0228 0 
1388 1 52.03 90.1186 0 
1389 1 53.24 88.0228 0 
1390 1 54.45 90.1186 0 
1391 1 55.66 88.0228 0 
1392 1 56.87 90.1186 0 
1393 1 58.08 88.0228 0 
1394 1 59.29 90.1186 0 
1395 1 60.5 88.0228 0 
1396 1 61.71 90.1186 0 
1397 1 62.92 88.0228 0 
1398 1 64.13 90.1186 0 
1399 1 65.34 88.0228 0 
1400 1 66.55 90.1186 0 
1401 1 67.76 88.0228 0 
1402 1 68.97 90.1186 0 
1403 1 70.18 88.0228 0 
1404 1 71.39 90.1186 0 
1405 1 72.6 88.0228 0 
1406 1 73.81 90.1186 0 
1407 1 75.02 88.0228 0 
1408 1 76.23 90.1186 0 
1409 1 0 92.2144 0 
1410 1 1.21 94.3102 0 
1411 1 2.42 92.2144 0 
1412 1 3.63 94.3102 0 
1413 1 4.84 92.2144 0 
1414 1 6.05 94.3102 0 
1415 1 7.26 92.2144 0 
1416 1 8.47 94.3102 0 
1417 1 9.68 92.2144 0 
1418 1 10.89 94.3102 0 
1419 1 12.1 92.2144 0 
1420 1 13.31 94.3102 0 
1421 1 14.52 92.2144 0 
1422 1 15.73 94.3102 0 
1423 1 16.94 92.2144 0 
1424 1 18.15 94.3102 0 
1425 1 19.36 92.2144 0 
1426 1 20.57 94.3102 0 
1427 1 21.78 92.2144 0 
1428 1 22.99 94.3102 0 
1429 1 24.2 92.2144 0 
1430 1 25.41 94.3102 0 
1431 1 26.62 92.2144 0 
1432 1 27.83 94.3102 0 
1433 1 29.04 92.2144 0 
1434 1 30.25 94.3102 0 
1435 1 31.46 92.2144 0 
1436 1 32.67 94.3102 0 
1437 1 33.88 92.2144 0 
1438 1 35.09 94.3102 0 
1439 1 36.3 92.2144 0 
1440 1 37.51 94.3102 0 
1441 1 38.72 92.2144 0 
1442 1 39.93 94.3102 0 
1443 1 41.14 92.2144 0 
1444 1 42.35 94.3102 0 
1445 1 43.56 92.2144 0 
1446 1 44.77 94.3102 0 
1447 1 45.98 92.2144 0 
1448 1 47.19 94.3102 0 
1449 1 48.4 92.2144 0 
1450 1 49.61 94.3102 0 
1451 1 50.82 92.2144 0 
1452 1 52.03 94.3102 0 
1453 1 53.24 92.2144 0 
1454 1 54.45 94.3102 0 
1455 1 55.66 92.2144 0 
1456 1 56.87 94.3102 0 
1457 1 58.08 92.2144 0 
1458 1 59.29 94.3102 0 
1459 1 60.5 92.2144 0 
1460 1 61.71 94.3102 0 
1461 1 62.92 92.2144 0 
1462 1 64.13 94.3102 0 
1463 1 65.34 92.2144 0 
1464 1 66.55 94.3102 0 
1465 1 67.76 92.2144 0 
1466 1 68.97 94.3102 0 
1467 1 70.18 92.2144 0 
1468 1 71.39 94.3102 0 
1469 1 72.6 92.2144 0 
1470 1 73.81 94.3102 0 
1471 1 75.02 92.2144 0 
1472 1 76.23 94.3102 0 
1473 3 0 96.4059 0 
1474 3 1.21 98.5017 0 
1475 3 2.42 96.4059 0 
1476 3 3.63 98.5017 0 
1477 3 4.84 96.4059 0 
1478 3 6.05 98.5017 0 
1479 3 7.26 96.4059 0 
1480 3 8.47 98.5017 0 
1481 3 9.68 96.4059 0 
1482 3 10.89 98.5017 0 
1483 3 12.1 96.4059 0 
1484 3 13.31 98.5017 0 
1485 3 14.52 96.4059 0 
1486 3 15.73 98.5017 0 
1487 3 16.94 96.4059 0 
1488 3 18.15 98.5017 0 
1489 3 19.36 96.4059 0 
1490 3 20.57 98.5017 0 
1491 3 21.78 96.4059 0 
1492 3 22.99 98.5017 0 
1493 3 24.2 96.4059 0 
1494 3 25.41 98.5017 0 
1495 3 26.62 96.4059 0 
1496 3 27.83 98.5017 0 
1497 3 29.04 96.4059 0 
1498 3 30.25 98.5017 0 
1499 3 31.46 96.4059 0 
1500 3 32.67 98.5017 0 
1501 3 33.88 96.4059 0 
1502 3 35.09 98.5017 0 
1503 3 36.3 96.4059 0 
1504 3 37.51 98.5017 0 
1505 3 38.72 96.4059 0 
1506 3 39.93 98.5017 0 
1507 3 41.14 96.4059 0 
1508 3 42.35 98.5017 0 
1509 3 43.56 96.4059 0 
1510 3 44.77 98.5017 0 
1511 3 45.98 96.4059 0 
1512 3 47.19 98.5017 0 
1513 3 48.4 96.4059 0 
1514 3 49.61 98.5017 0 
1515 3 50.82 96.4059 0 
1516 3 52.03 98.5017 0 
1517 3 53.24 96.4059 0 
1518 3 54.45 98.5017 0 
1519 3 55.66 96.4059 0 
1520 3 56.87 98.5017 0 
1521 3 58.08 96.4059 0 
1522 3 59.29 98.5017 0 
1523 3 60.5 96.4059 0 
1524 3 61.71 98.5017 0 
1525 3 62.92 96.4059 0 
1526 3 64.13 98.5017 0 
1527 3 65.34 96.4059 0 
1528 3 66.55 98.5017 0 
1529 3 67.76 96.4059 0 
1530 3 68.97 98.5017 0 
1531 3 70.18 96.4059 0 
1532 3 71.39 98.5017 0 
1533 3 72.6 96.4059 0 
1534 3 73.81 98.5017 0 
1535 3 75.02 96.4059 0 
1536 3 76.23 98.5017 0 
ITEM: TIMESTEP
5 1.00591e+11
ITEM: NUMBER OF ATOMS
1536
ITEM: BOX BOUNDS
0 77.44
0 100.598
-1.21 1.21
ITEM: ATOMS id type x y z
1 2 0 0 0 
2 2 1.21 2.09578 0 
3 2 2.42 0 0 
4 2 3.63 2.09578 0 
5 2 4.84 0 0 
6 2 6.05 2.09578 0 
7 2 7.26 0 0 
8 2 8.47 2.09578 0 
9 2 9.68 0 0 
10 2 10.89 2.09578 0 
11 2 12.1 0 0 
12 2 13.31 2.09578 0 
13 2 14.52 0 0 
14 2 15.73 2.09578 0 
15 2 16.94 0 0 
16 2 18.15 2.09578 0 
17 2 19.36 0 0 
18 2 20.57 2.09578 0 
19 2 21.78 0 0 
20 2 22.99 2.09578 0 
21 2 24.2 0 0 
22 2 25.41 2.09578 0 
23 2 26.62 0 0 
24 2 27.83 2.09578 0 
25 2 29.04 0 0 
26 2 30.25 2.09578 0 
27 2 31.46 0 0 
28 2 32.67 2.09578 0 
29 2 33.88 0 0 
30 2 35.09 2.09578 0 
31 2 36.3 0 0 
32 2 37.51 2.09578 0 
33 2 38.72 0 0 
34 2 39.93 2.09578 0 
35 2 41.14 0 0 
36 2 42.35 2.09578 0 
37 2 43.56 0 0 
38 2 44.77 2.09578 0 
39 2 45.98 0 0 
40 2 47.19 2.09578 0 
41 2 48.4 0 0 
42 2 49.61 2.09578 0 
43 2 50.82 0 0 
44 2 52.03 2.09578 0 
45 2 53.24 0 0 
46 2 54.45 2.09578 0 
47 2 55.66 0 0 
48 2 56.87 2.09578 0 
49 2 58.08 0 0 
50 2 59.29 2.09578 0 
51 2 60.5 0 0 
52 2 61.71 2.09578 0 
53 2 62.92 0 0 
54 2 64.13 2.09578 0 
55 2 65.34 0 0 
56 2 66.55 2.09578 0 
57 2 67.76 0 0 
58 2 68.97 2.09578 0 
59 2 70.18 0 0 
60 2 71.39 2.09578 0 
61 2 72.6 0 0 
62 2 73.81 2.09578 0 
63 2 75.02 0 0 
64 2 76.23 2.09578 0 
65 2 0 4.19156 0 
66 2 1.21 6.28734 0 
67 2 2.42 4.19156 0 
68 2 3.63 6.28734 0 
69 2 4.84 4.19156 0 
70 2 6.05 6.28734 0 
71 2 7.26 4.19156 0 
72 2 8.47 6.28734 0 
73 2 9.68 4.19156 0 
74 2 10.89 6.28734 0 
75 2 12.1 4.19156 0 
76 2 13.31 6.28734 0 
77 2 14.52 4.19156 0 
78 2 15.73 6.28734 0 
79 2 16.94 4.19156 0 
80 2 18.15 6.28734 0 
81 2 19.36 4.19156 0 
82 2 20.57 6.28734 0 
83 2 21.78 4.19156 0 
84 2 22.99 6.28734 0 
85 2 24.2 4.19156 0 
86 2 25.41 6.28734 0 
87 2 26.62 4.19156 0 
88 2 27.83 6.28734 0 
89 2 29.04 4.19156 0 
90 2 30.25 6.28734 0 
91 2 31.46 4.19156 0 
92 2 32.67 6.28734 0 
93 2 33.88 4.19156 0 
94 2 35.09 6.28734 0 
95 2 36.3 4.19156 0 
96 2 37.51 6.28734 0 
97 2 38.72 4.19156 0 
98 2 39.93 6.28734 0 
99 2 41.14 4.19156 0 
100 2 42.35 6.28734 0 
101 2 43.56 4.19156 0 
102 2 44.77 6.28734 0 
103 2 45.98 4.19156 0 
104 2 47.19 6.28734 0 
105 2 48.4 4.19156 0 
106 2 49.61 6.28734 0 
107 2 50.82 4.19156 0 
108 2 52.03 6.28734 0 
109 2 53.24 4.19156 0 
110 2 54.45 6.28734 0 
111 2 55.66 4.19156 0 
112 2 56.87 6.28734 0 
113 2 58.08 4.19156 0 
114 2 59.29 6.28734 0 
115 2 60.5 4.19156 0 
116 2 61.71 6.28734 0 
117 2 62.92 4.19156 0 
118 1 64.13 6.28734 0 
119 2 65.34 4.19156 0 
120 2 66.55 6.28734 0 
121 2 67.76 4.19156 0 
122 2 68.97 6.28734 0 
123 2 70.18 4.19156 0 
124 2 71.39 6.28734 0 
125 2 72.6 4.19156 0 
126 2 73.81 6.28734 0 
127 2 75.02 4.19156 0 
128 2 76.23 6.28734 0 
129 2 0 8.38313 0 
130 2 1.21 10.4789 0 
131 2 2.42 8.38313 0 
132 1 3.63 10.4789 0 
133 2 4.84 8.38313 0 
134 1 6.05 10.4789 0 
135 2 7.26 8.38313 0 
136 2 8.47 10.4789 0 
137 2 9.68 8.38313 0 
138 2 10.89 10.4789 0 
139 2 12.1 8.38313 0 
140 2 13.31 10.4789 0 
141 2 14.52 8.38313 0 
142 2 15.73 10.4789 0 
143 2 16.94 8.38313 0 
144 2 18.15 10.4789 0 
145 2 19.36 8.38313 0 
146 2 20.57 10.4789 0 
147 2 21.78 8.38313 0 
148 2 22.99 10.4789 0 
149 2 24.2 8.38313 0 
150 2 25.41 10.4789 0 
151 2 26.62 8.38313 0 
152 2 27.83 10.4789 0 
153 2 29.04 8.38313 0 
154 2 30.25 10.4789 0 
155 2 31.46 8.38313 0 
156 2 32.67 10.4789 0 
157 2 33.88 8.38313 0 
158 2 35.09 10.4789 0 
159 2 36.3 8.38313 0 
160 2 37.51 10.4789 0 
161 2 38.72 8.38313 0 
162 2 39.93 10.4789 0 
163 2 41.14 8.38313 0 
164 2 42.35 10.4789 0 
165 2 43.56 8.38313 0 
166 2 44.77 10.4789 0 
167 2 45.98 8.38313 0 
168 2 47.19 10.4789 0 
169 2 48.4 8.38313 0 
170 2 49.61 10.4789 0 
171 2 50.82 8.38313 0 
172 2 52.03 10.4789 0 
173 2 53.24 8.38313 0 
174 2 54.45 10.4789 0 
175 2 55.66 8.38313 0 
176 2 56.87 10.4789 0 
177 2 58.08 8.38313 0 
178 1 59.29 10.4789 0 
179 1 60.5 8.38313 0 
180 1 61.71 10.4789 0 
181 1 62.92 8.38313 0 
182 1 64.13 10.4789 0 
183 2 65.34 8.38313 0 
184 2 66.55 10.4789 0 
185 2 67.76 8.38313 0 
186 2 68.97 10.4789 0 
187 2 70.18 8.38313 0 
188 2 71.39 10.4789 0 
189 2 72.6 8.38313 0 
190 2 73.81 10.4789 0 
191 2 75.02 8.38313 0 
192 2 76.23 10.4789 0 
193 2 0 12.5747 0 
194 2 1.21 14.6705 0 
195 1 2.42 12.5747 0 
196 1 3.63 14.6705 0 
197 1 4.84 12.5747 0 
198 1 6.05 14.6705 0 
199 1 7.26 12.5747 0 
200 1 8.47 14.6705 0 
201 2 9.68 12.5747 0 
202 2 10.89 14.6705 0 
203 2 12.1 12.5747 0 
204 2 13.31 14.6705 0 
205 2 14.52 12.5747 0 
206 2 15.73 14.6705 0 
207 2 16.94 12.5747 0 
208 2 18.15 14.6705 0 
209 2 19.36 12.5747 0 
210 2 20.57 14.6705 0 
211 2 21.78 12.5747 0 
212 2 22.99 14.6705 0 
213 2 24.2 12.5747 0 
214 2 25.41 14.6705 0 
215 2 26.62 12.5747 0 
216 2 27.83 14.6705 0 
217 2 29.04 12.5747 0 
218 2 30.25 14.6705 0 
219 2 31.46 12.5747 0 
220 2 32.67 14.6705 0 
221 2 33.88 12.5747 0 
222 2 35.09 14.6705 0 
223 2 36.3 12.5747 0 
224 2 37.51 14.6705 0 
225 2 38.72 12.5747 0 
226 2 39.93 14.6705 0 
227 2 41.14 12.5747 0 
228 2 42.35 14.6705 0 
229 2 43.56 12.5747 0 
230 2 44.77 14.6705 0 
231 2 45.98 12.5747 0 
232 2 47.19 14.6705 0 
233 2 48.4 12.5747 0 
234 2 49.61 14.6705 0 
235 2 50.82 12.5747 0 
236 1 52.03 14.6705 0 
237 2 53.24 12.5747 0 
238 1 54.45 14.6705 0 
239 2 55.66 12.5747 0 
240 1 56.87 14.6705 0 
241 1 58.08 12.5747 0 
242 1 59.29 14.6705 0 
243 1 60.5 12.5747 0 
244 1 61.71 14.6705 0 
245 1 62.92 12.5747 0 
246 1 64.13 14.6705 0 
247 2 65.34 12.5747 0 
248 2 66.55 14.6705 0 
249 2 67.76 12.5747 0 
250 2 68.97 14.6705 0 
251 2 70.18 12.5747 0 
252 2 71.39 14.6705 0 
253 2 72.6 12.5747 0 
254 2 73.81 14.6705 0 
255 2 75.02 12.5747 0 
256 2 76.23 14.6705 0 
257 2 0 16.7663 0 
258 2 1.21 18.862 0 
259 2 2.42 16.7663 0 
260 2 3.63 18.862 0 
261 1 4.84 16.7663 0 
262 1 6.05 18.862 0 
263 1 7.26 16.7663 0 
264 1 8.47 18.862 0 
265 1 9.68 16.7663 0 
266 1 10.89 18.862 0 
267 2 12.1 16.7663 0 
268 1 13.31 18.862 0 
269 2 14.52 16.7663 0 
270 1 15.73 18.862 0 
271 2 16.94 16.7663 0 
272 1 18.15 18.862 0 
273 2 19.36 16.7663 0 
274 2 20.57 18.862 0 
275 2 21.78 16.7663 0 
276 2 22.99 18.862 0 
277 2 24.2 16.7663 0 
278 2 25.41 18.862 0 
279 2 26.62 16.7663 0 
280 2 27.83 18.862 0 
281 2 29.04 16.7663 0 
282 1 30.25 18.862 0 
283 2 31.46 16.7663 0 
284 1 32.67 18.862 0 
285 2 33.88 16.7663 0 
286 1 35.09 18.862 0 
287 2 36.3 16.7663 0 
288 2 37.51 18.862 0 
289 2 38.72 16.7663 0 
290 2 39.93 18.862 0 
291 2 41.14 16.7663 0 
292 2 42.35 18.862 0 
293 2 43.56 16.7663 0 
294 2 44.77 18.862 0 
295 2 45.98 16.7663 0 
296 2 47.19 18.862 0 
297 1 48.4 16.7663 0 
298 1 49.61 18.862 0 
299 1 50.82 16.7663 0 
300 1 52.03 18.862 0 
301 1 53.24 16.7663 0 
302 1 54.45 18.862 0 
303 1 55.66 16.7663 0 
304 1 56.87 18.862 0 
305 1 58.08 16.7663 0 
306 1 59.29 18.862 0 
307 1 60.5 16.7663 0 
308 1 61.71 18.862 0 
309 1 62.92 16.7663 0 
310 1 64.13 18.862 0 
311 1 65.34 16.7663 0 
312 1 66.55 18.862 0 
313 1 67.76 16.7663 0 
314 1 68.97 18.862 0 
315 2 70.18 16.7663 0 
316 2 71.39 18.862 0 
317 2 72.6 16.7663 0 
318 2 73.81 18.862 0 
319 2 75.02 16.7663 0 
320 2 76.23 18.862 0 
321 2 0 20.9578 0 
322 2 1.21 23.0536 0 
323 2 2.42 20.9578 0 
324 2 3.63 23.0536 0 
325 1 4.84 20.9578 0 
326 1 6.05 23.0536 0 
327 1 7.26 20.9578 0 
328 1 8.47 23.0536 0 
329 1 9.68 20.9578 0 
330 1 10.89 23.0536 0 
331 1 12.1 20.9578 0 
332 1 13.31 23.0536 0 
333 1 14.52 20.9578 0 
334 1 15.73 23.0536 0 
335 1 16.94 20.9578 0 
336 1 18.15 23.0536 0 
337 1 19.36 20.9578 0 
338 1 20.57 23.0536 0 
339 2 21.78 20.9578 0 
340 2 22.99 23.0536 0 
341 2 24.2 20.9578 0 
342 2 25.41 23.0536 0 
343 2 26.62 20.9578 0 
344 1 27.83 23.0536 0 
345 1 29.04 20.9578 0 
346 1 30.25 23.0536 0 
347 1 31.46 20.9578 0 
348 1 32.67 23.0536 0 
349 1 33.88 20.9578 0 
350 1 35.09 23.0536 0 
351 1 36.3 20.9578 0 
352 1 37.51 23.0536 0 
353 1 38.72 20.9578 0 
354 1 39.93 23.0536 0 
355 2 41.14 20.9578 0 
356 1 42.35 23.0536 0 
357 2 43.56 20.9578 0 
358 2 44.77 23.0536 0 
359 2 45.98 20.9578 0 
360 2 47.19 23.0536 0 
361 2 48.4 20.9578 0 
362 2 49.61 23.0536 0 
363 1 50.82 20.9578 0 
364 1 52.03 23.0536 0 
365 1 53.24 20.9578 0 
366 1 54.45 23.0536 0 
367 1 55.66 20.9578 0 
368 1 56.87 23.0536 0 
369 1 58.08 20.9578 0 
370 1 59.29 23.0536 0 
371 1 60.5 20.9578 0 
372 1 61.71 23.0536 0 
373 1 62.92 20.9578 0 
374 1 64.13 23.0536 0 
375 1 65.34 20.9578 0 
376 1 66.55 23.0536 0 
377 1 67.76 20.9578 0 
378 1 68.97 23.0536 0 
379 2 70.18 20.9578 0 
380 1 71.39 23.0536 0 
381 1 72.6 20.9578 0 
382 1 73.81 23.0536 0 
383 2 75.02 20.9578 0 
384 2 76.23 23.0536 0 
385 1 0 25.1494 0 
386 1 1.21 27.2452 0 
387 1 2.42 25.1494 0 
388 1 3.63 27.2452 0 
389 1 4.84 25.1494 0 
390 1 6.05 27.2452 0 
391 1 7.26 25.1494 0 
392 1 8.47 27.2452 0 
393 1 9.68 25.1494 0 
394 1 10.89 27.2452 0 
395 1 12.1 25.1494 0 
396 1 13.31 27.2452 0 
397 1 14.52 25.1494 0 
398 1 15.73 27.2452 0 
399 1 16.94 25.1494 0 
400 1 18.15 27.2452 0 
401 1 19.36 25.1494 0 
402 1 20.57 27.2452 0 
403 1 21.78 25.1494 0 
404 1 22.99 27.2452 0 
405 2 24.2 25.1494 0 
406 1 25.41 27.2452 0 
407 1 26.62 25.1494 0 
408 1 27.83 27.2452 0 
409 1 29.04 25.1494 0 
410 1 30.25 27.2452 0 
411 1 31.46 25.1494 0 
412 1 32.67 27.2452 0 
413 1 33.88 25.1494 0 
414 1 35.09 27.2452 0 
415 1 36.3 25.1494 0 
416 1 37.51 27.2452 0 
417 1 38.72 25.1494 0 
418 1 39.93 27.2452 0 
419 1 41.14 25.1494 0 
420 1 42.35 27.2452 0 
421 1 43.56 25.1494 0 
422 1 44.77 27.2452 0 
423 2 45.98 25.1494 0 
424 2 47.19 27.2452 0 
425 2 48.4 25.1494 0 
426 2 49.61 27.2452 0 
427 2 50.82 25.1494 0 
428 1 52.03 27.2452 0 
429 1 53.24 25.1494 0 
430 1 54.45 27.2452 0 
431 1 55.66 25.1494 0 
432 1 56.87 27.2452 0 
433 1 58.08 25.1494 0 
434 1 59.29 27.2452 0 
435 1 60.5 25.1494 0 
436 1 61.71 27.2452 0 
437 1 62.92 25.1494 0 
438 1 64.13 27.2452 0 
439 1 65.34 25.1494 0 
440 1 66.55 27.2452 0 
441 1 67.76 25.1494 0 
442 1 68.97 27.2452 0 
443 1 70.18 25.1494 0 
444 1 71.39 27.2452 0 
445 1 72.6 25.1494 0 
446 1 73.81 27.2452 0 
447 1 75.02 25.1494 0 
448 1 76.23 27.2452 0 
449 1 0 29.3409 0 
450 1 1.21 31.4367 0 
451 1 2.42 29.3409 0 
452 1 3.63 31.4367 0 
453 1 4.84 29.3409 0 
454 1 6.05 31.4367 0 
455 1 7.26 29.3409 0 
456 1 8.47 31.4367 0 
457 1 9.68 29.3409 0 
458 1 10.89 31.4367 0 
459 1 12.1 29.3409 0 
460 1 13.31 31.4367 0 
461 1 14.52 29.3409 0 
462 1 15.73 31.4367 0 
463 1 16.94 29.3409 0 
464 1 18.15 31.4367 0 
465 1 19.36 29.3409 0 
466 1 20.57 31.4367 0 
467 1 21.78 29.3409 0 
468 1 22.99 31.4367 0 
469 1 24.2 29.3409 0 
470 1 25.41 31.4367 0 
471 1 26.62 29.3409 0 
472 1 27.83 31.4367 0 
473 1 29.04 29.3409 0 
474 1 30.25 31.4367 0 
475 1 31.46 29.3409 0 
476 1 32.67 31.4367 0 
477 1 33.88 29.3409 0 
478 1 35.09 31.4367 0 
479 1 36.3 29.3409 0 
480 1 37.51 31.4367 0 
481 1 38.72 29.3409 0 
482 1 39.93 31.4367 0 
483 1 41.14 29.3409 0 
484 1 42.35 31.4367 0 
485 1 43.56 29.3409 0 
486 1 44.77 31.4367 0 
487 1 45.98 29.3409 0 
488 1 47.19 31.4367 0 
489 1 48.4 29.3409 0 
490 1 49.61 31.4367 0 
491 1 50.82 29.3409 0 
492 1 52.03 31.4367 0 
493 1 53.24 29.3409 0 
494 1 54.45 31.4367 0 
495 1 55.66 29.3409 0 
496 1 56.87 31.4367 0 
497 1 58.08 29.3409 0 
498 1 59.29 31.4367 0 
499 1 60.5 29.3409 0 
500 1 61.71 31.4367 0 
501 1 62.92 29.3409 0 
502 1 64.13 31.4367 0 
503 1 65.34 29.3409 0 
504 1 66.55 31.4367 0 
505 1 67.76 29.3409 0 
506 1 68.97 31.4367 0 
507 1 70.18 29.3409 0 
508 1 71.39 31.4367 0 
509 1 72.6 29.3409 0 
510 1 73.81 31.4367 0 
511 1 75.02 29.3409 0 
512 1 76.23 31.4367 0 
513 1 0 33.5325 0 
514 1 1.21 35.6283 0 
515 1 2.42 33.5325 0 
516 1 3.63 35.6283 0 
517 1 4.84 33.5325 0 
518 1 6.05 35.6283 0 
519 1 7.26 33.5325 0 
520 1 8.47 35.6283 0 
521 1 9.68 33.5325 0 
522 1 10.89 35.6283 0 
523 1 12.1 33.5325 0 
524 1 13.31 35.6283 0 
525 1 14.52 33.5325 0 
526 1 15.73 35.6283 0 
527 1 16.94 33.5325 0 
528 1 18.15 35.6283 0 
529 1 19.36 33.5325 0 
530 1 20.57 35.6283 0 
531 1 21.78 33.5325 0 
532 1 22.99 35.6283 0 
533 1 24.2 33.5325 0 
534 1 25.41 35.6283 0 
535 1 26.62 33.5325 0 
536 1 27.83 35.6283 0 
537 1 29.04 33.5325 0 
538 1 30.25 35.6283 0 
539 1 31.46 33.5325 0 
540 1 32.67 35.6283 0 
541 1 33.88 33.5325 0 
542 1 35.09 35.6283 0 
543 1 36.3 33.5325 0 
544 1 37.51 35.6283 0 
545 1 38.72 33.5325 0 
546 1 39.93 35.6283 0 
547 1 41.14 33.5325 0 
548 1 42.35 35.6283 0 
549 1 43.56 33.5325 0 
550 1 44.77 35.6283 0 
551 1 45.98 33.5325 0 
552 1 47.19 35.6283 0 
553 1 48.4 33.5325 0 
554 1 49.61 35.6283 0 
555 1 50.82 33.5325 0 
556 1 52.03 35.6283 0 
557 1 53.24 33.5325 0 
558 1 54.45 35.6283 0 
559 1 55.66 33.5325 0 
560 1 56.87 35.6283 0 
561 1 58.08 33.5325 0 
562 1 59.29 35.6283 0 
563 1 60.5 33.5325 0 
564 1 61.71 35.6283 0 
565 1 62.92 33.5325 0 
566 1 64.13 35.6283 0 
567 1 65.34 33.5325 0 
568 1 66.55 35.6283 0 
569 1 67.76 33.5325 0 
570 1 68.97 35.6283 0 
571 1 70.18 33.5325 0 
572 1 71.39 35.6283 0 
573 1 72.6 33.5325 0 
574 1 73.81 35.6283 0 
575 1 75.02 33.5325 0 
576 1 76.23 35.6283 0 
577 1 0 37.7241 0 
578 1 1.21 39.8198 0 
579 1 2.42 37.7241 0 
580 1 3.63 39.8198 0 
581 1 4.84 37.7241 0 
582 1 6.05 39.8198 0 
583 1 7.26 37.7241 0 
584 1 8.47 39.8198 0 
585 1 9.68 37.7241 0 
586 1 10.89 39.8198 0 
587 1 12.1 37.7241 0 
588 1 13.31 39.8198 0 
589 1 14.52 37.7241 0 
590 1 15.73 39.8198 0 
591 1 16.94 37.7241 0 
592 1 18.15 39.8198 0 
593 1 19.36 37.7241 0 
594 1 20.57 39.8198 0 
595 1 21.78 37.7241 0 
596 1 22.99 39.8198 0 
597 1 24.2 37.7241 0 
598 1 25.41 39.8198 0 
599 1 26.62 37.7241 0 
600 1 27.83 39.8198 0 
601 1 29.04 37.7241 0 
602 1 30.25 39.8198 0 
603 1 31.46 37.7241 0 
604 1 32.67 39.8198 0 
605 1 33.88 37.7241 0 
606 1 35.09 39.8198 0 
607 1 36.3 37.7241 0 
608 1 37.51 39.8198 0 
609 1 38.72 37.7241 0 
610 1 39.93 39.8198 0 
611 1 41.14 37.7241 0 
612 1 42.35 39.8198 0 
613 1 43.56 37.7241 0 
614 1 44.77 39.8198 0 
615 1 45.98 37.7241 0 
616 1 47.19 39.8198 0 
617 1 48.4 37.7241 0 
618 1 49.61 39.8198 0 
619 1 50.82 37.7241 0 
620 1 52.03 39.8198 0 
621 1 53.24 37.7241 0 
622 1 54.45 39.8198 0 
623 1 55.66 37.7241 0 
624 1 56.87 39.8198 0 
625 1 58.08 37.7241 0 
626 1 59.29 39.8198 0 
627 1 60.5 37.7241 0 
628 1 61.71 39.8198 0 
629 1 62.92 37.7241 0 
630 1 64.13 39.8198 0 
631 1 65.34 37.7241 0 
632 1 66.55 39.8198 0 
633 1 67.76 37.7241 0 
634 1 68.97 39.8198 0 
635 1 70.18 37.7241 0 
636 1 71.39 39.8198 0 
637 1 72.6 37.7241 0 
638 1 73.81 39.8198 0 
639 1 75.02 37.7241 0 
640 1 76.23 39.8198 0 
641 1 0 41.9156 0 
642 1 1.21 44.0114 0 
643 1 2.42 41.9156 0 
644 1 3.63 44.0114 0 
645 1 4.84 41.9156 0 
646 1 6.05 44.0114 0 
647 1 7.26 41.9156 0 
648 1 8.47 44.0114 0 
649 1 9.68 41.9156 0 
650 1 10.89 44.0114 0 
651 1 12.1 41.9156 0 
652 1 13.31 44.0114 0 
653 1 14.52 41.9156 0 
654 1 15.73 44.0114 0 
655 1 16.94 41.9156 0 
656 1 18.15 44.0114 0 
657 1 19.36 41.9156 0 
658 1 20.57 44.0114 0 
659 1 21.78 41.9156 0 
660 1 22.99 44.0114 0 
661 1 24.2 41.9156 0 
662 1 25.41 44.0114 0 
663 1 26.62 41.9156 0 
664 1 27.83 44.0114 0 
665 1 29.04 41.9156 0 
666 1 30.25 44.0114 0 
667 1 31.46 41.9156 0 
668 1 32.67 44.0114 0 
669 1 33.88 41.9156 0 
670 1 35.09 44.0114 0 
671 1 36.3 41.9156 0 
672 1 37.51 44.0114 0 
673 1 38.72 41.9156 0 
674 1 39.93 44.0114 0 
675 1 41.14 41.9156 0 
676 1 42.35 44.0114 0 
677 1 43.56 41.9156 0 
678 1 44.77 44.0114 0 
679 1 45.98 41.9156 0 
680 1 47.19 44.0114 0 
681 1 48.4 41.9156 0 
682 1 49.61 44.0114 0 
683 1 50.82 41.9156 0 
684 1 52.03 44.0114 0 
685 1 53.24 41.9156 0 
686 1 54.45 44.0114 0 
687 1 55.66 41.9156 0 
688 1 56.87 44.0114 0 
689 1 58.08 41.9156 0 
690 1 59.29 44.0114 0 
691 1 60.5 41.9156 0 
692 1 61.71 44.0114 0 
693 1 62.92 41.9156 0 
694 1 64.13 44.0114 0 
695 1 65.34 41.9156 0 
696 1 66.55 44.0114 0 
697 1 67.76 41.9156 0 
698 1 68.97 44.0114 0 
699 1 70.18 41.9156 0 
700 1 71.39 44.0114 0 
701 1 72.6 41.9156 0 
702 1 73.81 44.0114 0 
703 1 75.02 41.9156 0 
704 1 76.23 44.0114 0 
705 1 0 46.1072 0 
706 1 1.21 48.203 0 
707 1 2.42 46.1072 0 
708 1 3.63 48.203 0 
709 1 4.84 46.1072 0 
710 1 6.05 48.203 0 
711 1 7.26 46.1072 0 
712 1 8.47 48.203 0 
713 1 9.68 46.1072 0 
714 1 10.89 48.203 0 
715 1 12.1 46.1072 0 
716 1 13.31 48.203 0 
717 1 14.52 46.1072 0 
718 1 15.73 48.203 0 
719 1 16.94 46.1072 0 
720 1 18.15 48.203 0 
721 1 19.36 46.1072 0 
722 1 20.57 48.203 0 
723 1 21.78 46.1072 0 
724 1 22.99 48.203 0 
725 1 24.2 46.1072 0 
726 1 25.41 48.203 0 
727 1 26.62 46.1072 0 
728 1 27.83 48.203 0 
729 1 29.04 46.1072 0 
730 1 30.25 48.203 0 
731 1 31.46 46.1072 0 
732 1 32.67 48.203 0 
733 1 33.88 46.1072 0 
734 1 35.09 48.203 0 
735 1 36.3 46.1072 0 
736 1 37.51 48.203 0 
737 1 38.72 46.1072 0 
738 1 39.93 48.203 0 
739 1 41.14 46.1072 0 
740 1 42.35 48.203 0 
741 1 43.56 46.1072 0 
742 1 44.77 48.203 0 
743 1 45.98 46.1072 0 
744 1 47.19 48.203 0 
745 1 48.4 46.1072 0 
746 1 49.61 48.203 0 
747 1 50.82 46.1072 0 
748 1 52.03 48.203 0 
749 1 53.24 46.1072 0 
750 1 54.45 48.203 0 
751 1 55.66 46.1072 0 
752 1 56.87 48.203 0 
753 1 58.08 46.1072 0 
754 1 59.29 48.203 0 
755 1 60.5 46.1072 0 
756 1 61.71 48.203 0 
757 1 62.92 46.1072 0 
758 1 64.13 48.203 0 
759 1 65.34 46.1072 0 
760 1 66.55 48.203 0 
761 1 67.76 46.1072 0 
762 1 68.97 48.203 0 
763 1 70.18 46.1072 0 
764 1 71.39 48.203 0 
765 1 72.6 46.1072 0 
766 1 73.81 48.203 0 
767 1 75.02 46.1072 0 
768 1 76.23 48.203 0 
769 1 0 50.2988 0 
770 1 1.21 52.3945 0 
771 1 2.42 50.2988 0 
772 1 3.63 52.3945 0 
773 1 4.84 50.2988 0 
774 1 6.05 52.3945 0 
775 1 7.26 50.2988 0 
776 1 8.47 52.3945 0 
777 1 9.68 50.2988 0 
778 1 10.89 52.3945 0 
779 1 12.1 50.2988 0 
780 1 13.31 52.3945 0 
781 1 14.52 50.2988 0 
782 1 15.73 52.3945 0 
783 1 16.94 50.2988 0 
784 1 18.15 52.3945 0 
785 1 19.36 50.2988 0 
786 1 20.57 52.3945 0 
787 1 21.78 50.2988 0 
788 1 22.99 52.3945 0 
789 1 24.2 50.2988 0 
790 1 25.41 52.3945 0 
791 1 26.62 50.2988 0 
792 1 27.83 52.3945 0 
793 1 29.04 50.2988 0 
794 1 30.25 52.3945 0 
795 1 31.46 50.2988 0 
796 1 32.67 52.3945 0 
797 1 33.88 50.2988 0 
798 1 35.09 52.3945 0 
799 1 36.3 50.2988 0 
800 1 37.51 52.3945 0 
801 1 38.72 50.2988 0 
802 1 39.93 52.3945 0 
803 1 41.14 50.2988 0 
804 1 42.35 52.3945 0 
805 1 43.56 50.2988 0 
806 1 44.77 52.3945 0 
807 1 45.98 50.2988 0 
808 1 47.19 52.3945 0 
809 1 48.4 50.2988 0 
810 1 49.61 52.3945 0 
811 1 50.82 50.2988 0 
812 1 52.03 52.3945 0 
813 1 53.24 50.2988 0 
814 1 54.45 52.3945 0 
815 1 55.66 50.2988 0 
816 1 56.87 52.3945 0 
817 1 58.08 50.2988 0 
818 1 59.29 52.3945 0 
819 1 60.5 50.2988 0 
820 1 61.71 52.3945 0 
821 1 62.92 50.2988 0 
822 1 64.13 52.3945 0 
823 1 65.34 50.2988 0 
824 1 66.55 52.3945 0 
825 1 67.76 50.2988 0 
826 1 68.97 52.3945 0 
827 1 70.18 50.2988 0 
828 1 71.39 52.3945 0 
829 1 72.6 50.2988 0 
830 1 73.81 52.3945 0 
831 1 75.02 50.2988 0 
832 1 76.23 52.3945 0 
833 1 0 54.4903 0 
834 1 1.21 56.5861 0 
835 1 2.42 54.4903 0 
836 1 3.63 56.5861 0 
837 1 4.84 54.4903 0 
838 1 6.05 56.5861 0 
839 1 7.26 54.4903 0 
840 1 8.47 56.5861 0 
841 1 9.68 54.4903 0 
842 1 10.89 56.5861 0 
843 1 12.1 54.4903 0 
844 1 13.31 56.5861 0 
845 1 14.52 54.4903 0 
846 1 15.73 56.5861 0 
847 1 16.94 54.4903 0 
848 1 18.15 56.5861 0 
849 1 19.36 54.4903 0 
850 1 20.57 56.5861 0 
851 1 21.78 54.4903 0 
852 1 22.99 56.5861 0 
853 1 24.2 54.4903 0 
854 1 25.41 56.5861 0 
855 1 26.62 54.4903 0 
856 1 27.83 56.5861 0 
857 1 29.04 54.4903 0 
858 1 30.25 56.5861 0 
859 1 31.46 54.4903 0 
860 1 32.67 56.5861 0 
861 1 33.88 54.4903 0 
862 1 35.09 56.5861 0 
863 1 36.3 54.4903 0 
864 1 37.51 56.5861 0 
865 1 38.72 54.4903 0 
866 1 39.93 56.5861 0 
867 1 41.14 54.4903 0 
868 1 42.35 56.5861 0 
869 1 43.56 54.4903 0 
870 1 44.77 56.5861 0 
871 1 45.98 54.4903 0 
872 1 47.19 56.5861 0 
873 1 48.4 54.4903 0 
874 1 49.61 56.5861 0 
875 1 50.82 54.4903 0 
876 1 52.03 56.5861 0 
877 1 53.24 54.4903 0 
878 1 54.45 56.5861 0 
879 1 55.66 54.4903 0 
880 1 56.87 56.5861 0 
881 1 58.08 54.4903 0 
882 1 59.29 56.5861 0 
883 1 60.5 54.4903 0 
884 1 61.71 56.5861 0 
885 1 62.92 54.4903 0 
886 1 64.13 56.5861 0 
887 1 65.34 54.4903 0 
888 1 66.55 56.5861 0 
889 1 67.76 54.4903 0 
890 1 68.97 56.5861 0 
891 1 70.18 54.4903 0 
892 1 71.39 56.5861 0 
893 1 72.6 54.4903 0 
894 1 73.81 56.5861 0 
895 1 75.02 54.4903 0 
896 1 76.23 56.5861 0 
897 1 0 58.6819 0 
898 1 1.21 60.7777 0 
899 1 2.42 58.6819 0 
900 1 3.63 60.7777 0 
901 1 4.84 58.6819 0 
902 1 6.05 60.7777 0 
903 1 7.26 58.6819 0 
904 1 8.47 60.7777 0 
905 1 9.68 58.6819 0 
906 1 10.89 60.7777 0 
907 1 12.1 58.6819 0 
908 1 13.31 60.7777 0 
909 1 14.52 58.6819 0 
910 1 15.73 60.7777 0 
911 1 16.94 58.6819 0 
912 1 18.15 60.7777 0 
913 1 19.36 58.6819 0 
914 1 20.57 60.7777 0 
915 1 21.78 58.6819 0 
916 1 22.99 60.7777 0 
917 1 24.2 58.6819 0 
918 1 25.41 60.7777 0 
919 1 26.62 58.6819 0 
920 1 27.83 60.7777 0 
921 1 29.04 58.6819 0 
922 1 30.25 60.7777 0 
923 1 31.46 58.6819 0 
924 1 32.67 60.7777 0 
925 1 33.88 58.6819 0 
926 1 35.09 60.7777 0 
927 1 36.3 58.6819 0 
928 1 37.51 60.7777 0 
929 1 38.72 58.6819 0 
930 1 39.93 60.7777 0 
931 1 41.14 58.6819 0 
932 1 42.35 60.7777 0 
933 1 43.56 58.6819 0 
934 1 44.77 60.7777 0 
935 1 45.98 58.6819 0 
936 1 47.19 60.7777 0 
937 1 48.4 58.6819 0 
938 1 49.61 60.7777 0 
939 1 50.82 58.6819 0 
940 1 52.03 60.7777 0 
941 1 53.24 58.6819 0 
942 1 54.45 60.7777 0 
943 1 55.66 58.6819 0 
944 1 56.87 60.7777 0 
945 1 58.08 58.6819 0 
946 1 59.29 60.7777 0 
947 1 60.5 58.6819 0 
948 1 61.71 60.7777 0 
949 1 62.92 58.6819 0 
950 1 64.13 60.7777 0 
951 1 65.34 58.6819 0 
952 1 66.55 60.7777 0 
953 1 67.76 58.6819 0 
954 1 68.97 60.7777 0 
955 1 70.18 58.6819 0 
956 1 71.39 60.7777 0 
957 1 72.6 58.6819 0 
958 1 73.81 60.7777 0 
959 1 75.02 58.6819 0 
960 1 76.23 60.7777 0 
961 1 0 62.8734 0 
962 1 1.21 64.9692 0 
963 1 2.42 62.8734 0 
964 1 3.63 64.9692 0 
965 1 4.84 62.8734 0 
966 1 6.05 64.9692 0 
967 1 7.26 62.8734 0 
968 1 8.47 64.9692 0 
969 1 9.68 62.8734 0 
970 1 10.89 64.9692 0 
971 1 12.1 62.8734 0 
972 1 13.31 64.9692 0 
973 1 14.52 62.8734 0 
974 1 15.73 64.9692 0 
975 1 16.94 62.8734 0 
976 1 18.15 64.9692 0 
977 1 19.36 62.8734 0 
978 1 20.57 64.9692 0 
979 1 21.78 62.8734 0 
980 1 22.99 64.9692 0 
981 1 24.2 62.8734 0 
982 1 25.41 64.9692 0 
983 1 26.62 62.8734 0 
984 1 27.83 64.9692 0 
985 1 29.04 62.8734 0 
986 1 30.25 64.9692 0 
987 1 31.46 62.8734 0 
988 1 32.67 64.9692 0 
989 1 33.88 62.8734 0 
990 1 35.09 64.9692 0 
991 1 36.3 62.8734 0 
992 1 37.51 64.9692 0 
993 1 38.72 62.8734 0 
994 1 39.93 64.9692 0 
995 1 41.14 62.8734 0 
996 1 42.35 64.9692 0 
997 1 43.56 62.8734 0 
998 1 44.77 64.9692 0 
999 1 45.98 62.8734 0 
1000 1 47.19 64.9692 0 
1001 1 48.4 62.8734 0 
1002 1 49.61 64.9692 0 
1003 1 50.82 62.8734 0 
1004 1 52.03 64.9692 0 
1005 1 53.24 62.8734 0 
1006 1 54.45 64.9692 0 
1007 1 55.66 62.8734 0 
1008 1 56.87 64.9692 0 
1009 1 58.08 62.8734 0 
1010 1 59.29 64.9692 0 
1011 1 60.5 62.8734 0 
1012 1 61.71 64.9692 0 
1013 1 62.92 62.8734 0 
1014 1 64.13 64.9692 0 
1015 1 65.34 62.8734 0 
1016 1 66.55 64.9692 0 
1017 1 67.76 62.8734 0 
1018 1 68.97 64.9692 0 
1019 1 70.18 62.8734 0 
1020 1 71.39 64.9692 0 
1021 1 72.6 62.8734 0 
1022 1 73.81 64.9692 0 
1023 1 75.02 62.8734 0 
1024 1 76.23 64.9692 0 
1025 1 0 67.065 0 
1026 1 1.21 69.1608 0 
1027 1 2.42 67.065 0 
1028 1 3.63 69.1608 0 
1029 1 4.84 67.065 0 
1030 1 6.05 69.1608 0 
1031 1 7.26 67.065 0 
1032 1 8.47 69.1608 0 
1033 1 9.68 67.065 0 
1034 1 10.89 69.1608 0 
1035 1 12.1 67.065 0 
1036 1 13.31 69.1608 0 
1037 1 14.52 67.065 0 
1038 1 15.73 69.1608 0 
1039 1 16.94 67.065 0 
1040 1 18.15 69.1608 0 
1041 1 19.36 67.065 0 
1042 1 20.57 69.1608 0 
1043 1 21.78 67.065 0 
1044 1 22.99 69.1608 0 
1045 1 24.2 67.065 0 
1046 1 25.41 69.1608 0 
1047 1 26.62 67.065 0 
1048 1 27.83 69.1608 0 
1049 1 29.04 67.065 0 
1050 1 30.25 69.1608 0 
1051 1 31.46 67.065 0 
1052 1 32.67 69.1608 0 
1053 1 33.88 67.065 0 
1054 1 35.09 69.1608 0 
1055 1 36.3 67.065 0 
1056 1 37.51 69.1608 0 
1057 1 38.72 67.065 0 
1058 1 39.93 69.1608 0 
1059 1 41.14 67.065 0 
1060 1 42.35 69.1608 0 
1061 1 43.56 67.065 0 
1062 1 44.77 69.1608 0 
1063 1 45.98 67.065 0 
1064 1 47.19 69.1608 0 
1065 1 48.4 67.065 0 
1066 1 49.61 69.1608 0 
1067 1 50.82 67.065 0 
1068 1 52.03 69.1608 0 
1069 1 53.24 67.065 0 
1070 1 54.45 69.1608 0 
1071 1 55.66 67.065 0 
1072 1 56.87 69.1608 0 
1073 1 58.08 67.065 0 
1074 1 59.29 69.1608 0 
1075 1 60.5 67.065 0 
1076 1 61.71 69.1608 0 
1077 1 62.92 67.065 0 
1078 1 64.13 69.1608 0 
1079 1 65.34 67.065 0 
1080 1 66.55 69.1608 0 
1081 1 67.76 67.065 0 
1082 1 68.97 69.1608 0 
1083 1 70.18 67.065 0 
1084 1 71.39 69.1608 0 
1085 1 72.6 67.065 0 
1086 1 73.81 69.1608 0 
1087 1 75.02 67.065 0 
1088 1 76.23 69.1608 0 
1089 1 0 71.2566 0 
1090 1 1.21 73.3524 0 
1091 1 2.42 71.2566 0 
1092 1 3.63 73.3524 0 
1093 1 4.84 71.2566 0 
1094 1 6.05 73.3524 0 
1095 1 7.26 71.2566 0 
1096 1 8.47 73.3524 0 
1097 1 9.68 71.2566 0 
1098 1 10.89 73.3524 0 
1099 1 12.1 71.2566 0 
1100 1 13.31 73.3524 0 
1101 1 14.52 71.2566 0 
1102 1 15.73 73.3524 0 
1103 1 16.94 71.2566 0 
1104 1 18.15 73.3524 0 
1105 1 19.36 71.2566 0 
1106 1 20.57 73.3524 0 
1107 1 21.78 71.2566 0 
1108 1 22.99 73.3524 0 
1109 1 24.2 71.2566 0 
1110 1 25.41 73.3524 0 
1111 1 26.62 71.2566 0 
1112 1 27.83 73.3524 0 
1113 1 29.04 71.2566 0 
1114 1 30.25 73.3524 0 
1115 1 31.46 71.2566 0 
1116 1 32.67 73.3524 0 
1117 1 33.88 71.2566 0 
1118 1 35.09 73.3524 0 
1119 1 36.3 71.2566 0 
1120 1 37.51 73.3524 0 
1121 1 38.72 71.2566 0 
1122 1 39.93 73.3524 0 
1123 1 41.14 71.2566 0 
1124 1 42.35 73.3524 0 
1125 1 43.56 71.2566 0 
1126 1 44.77 73.3524 0 
1127 1 45.98 71.2566 0 
1128 1 47.19 73.3524 0 
1129 1 48.4 71.2566 0 
1130 1 49.61 73.3524 0 
1131 1 50.82 71.2566 0 
1132 1 52.03 73.3524 0 
1133 1 53.24 71.2566 0 
1134 1 54.45 73.3524 0 
1135 1 55.66 71.2566 0 
1136 1 56.87 73.3524 0 
1137 1 58.08 71.2566 0 
1138 1 59.29 73.3524 0 
1139 1 60.5 71.2566 0 
1140 1 61.71 73.3524 0 
1141 1 62.92 71.2566 0 
1142 1 64.13 73.3524 0 
1143 1 65.34 71.2566 0 
1144 1 66.55 73.3524 0 
1145 1 67.76 71.2566 0 
1146 1 68.97 73.3524 0 
1147 1 70.18 71.2566 0 
1148 1 71.39 73.3524 0 
1149 1 72.6 71.2566 0 
1150 1 73.81 73.3524 0 
1151 1 75.02 71.2566 0 
1152 1 76.23 73.3524 0 
1153 1 0 75.4481 0 
1154 1 1.21 77.5439 0 
1155 1 2.42 75.4481 0 
1156 1 3.63 77.5439 0 
1157 1 4.84 75.4481 0 
1158 1 6.05 77.5439 0 
1159 1 7.26 75.4481 0 
1160 1 8.47 77.5439 0 
1161 1 9.68 75.4481 0 
1162 1 10.89 77.5439 0 
1163 1 12.1 75.4481 0 
1164 1 13.31 77.5439 0 
1165 1 14.52 75.4481 0 
1166 1 15.73 77.5439 0 
1167 1 16.94 75.4481 0 
1168 1 18.15 77.5439 0 
1169 1 19.36 75.4481 0 
1170 1 20.57 77.5439 0 
1171 1 21.78 75.4481 0 
1172 1 22.99 77.5439 0 
1173 1 24.2 75.4481 0 
1174 1 25.41 77.5439 0 
1175 1 26.62 75.4481 0 
1176 1 27.83 77.5439 0 
1177 1 29.04 75.4481 0 
1178 1 30.25 77.5439 0 
1179 1 31.46 75.4481 0 
1180 1 32.67 77.5439 0 
1181 1 33.88 75.4481 0 
1182 1 35.09 77.5439 0 
1183 1 36.3 75.4481 0 
1184 1 37.51 77.5439 0 
1185 1 38.72 75.4481 0 
1186 1 39.93 77.5439 0 
1187 1 41.14 75.4481 0 
1188 1 42.35 77.5439 0 
1189 1 43.56 75.4481 0 
1190 1 44.77 77.5439 0 
1191 1 45.98 75.4481 0 
1192 1 47.19 77.5439 0 
1193 1 48.4 75.4481 0 
1194 1 49.61 77.5439 0 
1195 1 50.82 75.4481 0 
1196 1 52.03 77.5439 0 
1197 1 53.24 75.4481 0 
1198 1 54.45 77.5439 0 
1199 1 55.66 75.4481 0 
1200 1 56.87 77.5439 0 
1201 1 58.08 75.4481 0 
1202 1 59.29 77.5439 0 
1203 1 60.5 75.4481 0 
1204 1 61.71 77.5439 0 
1205 1 62.92 75.4481 0 
1206 1 64.13 77.5439 0 
1207 1 65.34 75.4481 0 
1208 1 66.55 77.5439 0 
1209 1 67.76 75.4481 0 
1210 1 68.97 77.5439 0 
1211 1 70.18 75.4481 0 
1212 1 71.39 77.5439 0 
1213 1 72.6 75.4481 0 
1214 1 73.81 77.5439 0 
1215 1 75.02 75.4481 0 
1216 1 76.23 77.5439 0 
1217 1 0 79.6397 0 
1218 1 1.21 81.7355 0 
1219 1 2.42 79.6397 0 
1220 1 3.63 81.7355 0 
1221 1 4.84 79.6397 0 
1222 1 6.05 81.7355 0 
1223 1 7.26 79.6397 0 
1224 1 8.47 81.7355 0 
1225 1 9.68 79.6397 0 
1226 1 10.89 81.7355 0 
1227 1 12.1 79.6397 0 
1228 1 13.31 81.7355 0 
1229 1 14.52 79.6397 0 
1230 1 15.73 81.7355 0 
1231 1 16.94 79.6397 0 
1232 1 18.15 81.7355 0 
1233 1 19.36 79.6397 0 
1234 1 20.57 81.7355 0 
1235 1 21.78 79.6397 0 
1236 1 22.99 81.7355 0 
1237 1 24.2 79.6397 0 
1238 1 25.41 81.7355 0 
1239 1 26.62 79.6397 0 
1240 1 27.83 81.7355 0 
1241 1 29.04 79.6397 0 
1242 1 30.25 81.7355 0 
1243 1 31.46 79.6397 0 
1244 1 32.67 81.7355 0 
1245 1 33.88 79.6397 0 
1246 1 35.09 81.7355 0 
1247 1 36.3 79.6397 0 
1248 1 37.51 81.7355 0 
1249 1 38.72 79.6397 0 
1250 1 39.93 81.7355 0 
1251 1 41.14 79.6397 0 
1252 1 42.35 81.7355 0 
1253 1 43.56 79.6397 0 
1254 1 44.77 81.7355 0 
1255 1 45.98 79.6397 0 
1256 1 47.19 81.7355 0 
1257 1 48.4 79.6397 0 
1258 1 49.61 81.7355 0 
1259 1 50.82 79.6397 0 
1260 1 52.03 81.7355 0 
1261 1 53.24 79.6397 0 
1262 1 54.45 81.7355 0 
1263 1 55.66 79.6397 0 
1264 1 56.87 81.7355 0 
1265 1 58.08 79.6397 0 
1266 1 59.29 81.7355 0 
1267 1 60.5 79.6397 0 
1268 1 61.71 81.7355 0 
1269 1 62.92 79.6397 0 
1270 1 64.13 81.7355 0 
1271 1 65.34 79.6397 0 
1272 1 66.55 81.7355 0 
1273 1 67.76 79.6397 0 
1274 1 68.97 81.7355 0 
1275 1 70.18 79.6397 0 
1276 1 71.39 81.7355 0 
1277 1 72.6 79.6397 0 
1278 1 73.81 81.7355 0 
1279 1 75.02 79.6397 0 
1280 1 76.23 81.7355 0 
1281 1 0 83.8313 0 
1282 1 1.21 85.927 0 
1283 1 2.42 83.8313 0 
1284 1 3.63 85.927 0 
1285 1 4.84 83.8313 0 
1286 1 6.05 85.927 0 
1287 1 7.26 83.8313 0 
1288 1 8.47 85.927 0 
1289 1 9.68 83.8313 0 
1290 1 10.89 85.927 0 
1291 1 12.1 83.8313 0 
1292 1 13.31 85.927 0 
1293 1 14.52 83.8313 0 
1294 1 15.73 85.927 0 
1295 1 16.94 83.8313 0 
1296 1 18.15 85.927 0 
1297 1 19.36 83.8313 0 
1298 1 20.57 85.927 0 
1299 1 21.78 83.8313 0 
1300 1 22.99 85.927 0 
1301 1 24.2 83.8313 0 
1302 1 25.41 85.927 0 
1303 1 26.62 83.8313 0 
1304 1 27.83 85.927 0 
1305 1 29.04 83.8313 0 
1306 1 30.25 85.927 0 
1307 1 31.46 83.8313 0 
1308 1 32.67 85.927 0 
1309 1 33.88 83.8313 0 
1310 1 35.09 85.927 0 
1311 1 36.3 83.8313 0 
1312 1 37.51 85.927 0 
1313 1 38.72 83.8313 0 
1314 1 39.93 85.927 0 
1315 1 41.14 83.8313 0 
1316 1 42.35 85.927 0 
1317 1 43.56 83.8313 0 
1318 1 44.77 85.927 0 
1319 1 45.98 83.8313 0 
1320 1 47.19 85.927 0 
1321 1 48.4 83.8313 0 
1322 1 49.61 85.927 0 
1323 1 50.82 83.8313 0 
1324 1 52.03 85.927 0 
1325 1 53.24 83.8313 0 
1326 1 54.45 85.927 0 
1327 1 55.66 83.8313 0 
1328 1 56.87 85.927 0 
1329 1 58.08 83.8313 0 
1330 1 59.29 85.927 0 
1331 1 60.5 83.8313 0 
1332 1 61.71 85.927 0 
1333 1 62.92 83.8313 0 
1334 1 64.13 85.927 0 
1335 1 65.34 83.8313 0 
1336 1 66.55 85.927 0 
1337 1 67.76 83.8313 0 
1338 1 68.97 85.927 0 
1339 1 70.18 83.8313 0 
1340 1 71.39 85.927 0 
1341 1 72.6 83.8313 0 
1342 1 73.81 85.927 0 
1343 1 75.02 83.8313 0 
1344 1 76.23 85.927 0 
1345 1 0 88.0228 0 
1346 1 1.21 90.1186 0 
1347 1 2.42 88.0228 0 
1348 1 3.63 90.1186 0 
1349 1 4.84 88.0228 0 
1350 1 6.05 90.1186 0 
1351 1 7.26 88.0228 0 
1352 1 8.47 90.1186 0 
1353 1 9.68 88.0228 0 
1354 1 10.89 90.1186 0 
1355 1 12.1 88.0228 0 
1356 1 13.31 90.1186 0 
1357 1 14.52 88.0228 0 
1358 1 15.73 90.1186 0 
1359 1 16.94 88.0228 0 
1360 1 18.15 90.1186 0 
1361 1 19.36 88.0228 0 
1362 1 20.57 90.1186 0 
1363 1 21.78 88.0228 0 
1364 1 22.99 90.1186 0 
1365 1 24.2 88.0228 0 
1366 1 25.41 90.1186 0 
1367 1 26.62 88.0228 0 
1368 1 27.83 90.1186 0 
1369 1 29.04 88.0228 0 
1370 1 30.25 90.1186 0 
1371 1 31.46 88.0228 0 
1372 1 32.67 90.1186 0 
1373 1 33.88 88.0228 0 
1374 1 35.09 90.1186 0 
1375 1 36.3 88.0228 0 
1376 1 37.51 90.1186 0 
1377 1 38.72 88.0228 0 
1378 1 39.93 90.1186 0 
1379 1 41.14 88.0228 0 
1380 1 42.35 90.1186 0 
1381 1 43.56 88.0228 0 
1382 1 44.77 90.1186 0 
1383 1 45.98 88.0228 0 
1384 1 47.19 90.1186 0 
1385 1 48.4 88.0228 0 
1386 1 49.61 90.1186 0 
1387 1 50.82 88.0228 0 
1388 1 52.03 90.1186 0 
1389 1 53.24 88.0228 0 
1390 1 54.45 90.1186 0 
1391 1 55.66 88.0228 0 
1392 1 56.87 90.1186 0 
1393 1 58.08 88.0228 0 
1394 1 59.29 90.1186 0 
1395 1 60.5 88.0228 0 
1396 1 61.71 90.1186 0 
1397 1 62.92 88.0228 0 
1398 1 64.13 90.1186 0 
1399 1 65.34 88.0228 0 
1400 1 66.55 90.1186 0 
1401 1 67.76 88.0228 0 
1402 1 68.97 90.1186 0 
1403 1 70.18 88.0228 0 
1404 1 71.39 90.1186 0 
1405 1 72.6 88.0228 0 
1406 1 73.81 90.1186 0 
1407 1 75.02 88.0228 0 
1408 1 76.23 90.1186 0 
1409 1 0 92.2144 0 
1410 1 1.21 94.3102 0 
1411 1 2.42 92.2144 0 
1412 1 3.63 94.3102 0 
1413 1 4.84 92.2144 0 
1414 1 6.05 94.3102 0 
1415 1 7.26 92.2144 0 
1416 1 8.47 94.3102 0 
1417 1 9.68 92.2144 0 
1418 1 10.89 94.3102 0 
1419 1 12.1 92.2144 0 
1420 1 13.31 94.3102 0 
1421 1 14.52 92.2144 0 
1422 1 15.73 94.3102 0 
1423 1 16.94 92.2144 0 
1424 1 18.15 94.3102 0 
1425 1 19.36 92.2144 0 
1426 1 20.57 94.3102 0 
1427 1 21.78 92.2144 0 
1428 1 22.99 94.3102 0 
1429 1 24.2 92.2144 0 
1430 1 25.41 94.3102 0 
1431 1 26.62 92.2144 0 
1432 1 27.83 94.3102 0 
1433 1 29.04 92.2144 0 
1434 1 30.25 94.3102 0 
1435 1 31.46 92.2144 0 
1436 1 32.67 94.3102 0 
1437 1 33.88 92.2144 0 
1438 1 35.09 94.3102 0 
1439 1 36.3 92.2144 0 
1440 1 37.51 94.3102 0 
1441 1 38.72 92.2144 0 
1442 1 39.93 94.3102 0 
1443 1 41.14 92.2144 0 
1444 1 42.35 94.3102 0 
1445 1 43.56 92.2144 0 
1446 1 44.77 94.3102 0 
1447 1 45.98 92.2144 0 
1448 1 47.19 94.3102 0 
1449 1 48.4 92.2144 0 
1450 1 49.61 94.3102 0 
1451 1 50.82 92.2144 0 
1452 1 52.03 94.3102 0 
1453 1 53.24 92.2144 0 
1454 1 54.45 94.3102 0 
1455 1 55.66 92.2144 0 
1456 1 56.87 94.3102 0 
1457 1 58.08 92.2144 0 
1458 1 59.29 94.3102 0 
1459 1 60.5 92.2144 0 
1460 1 61.71 94.3102 0 
1461 1 62.92 92.2144 0 
1462 1 64.13 94.3102 0 
1463 1 65.34 92.2144 0 
1464 1 66.55 94.3102 0 
1465 1 67.76 92.2144 0 
1466 1 68.97 94.3102 0 
1467 1 70.18 92.2144 0 
1468 1 71.39 94.3102 0 
1469 1 72.6 92.2144 0 
1470 1 73.81 94.3102 0 
1471 1 75.02 92.2144 0 
1472 1 76.23 94.3102 0 
1473 3 0 96.4059 0 
1474 3 1.21 98.5017 0 
1475 3 2.42 96.4059 0 
1476 3 3.63 98.5017 0 
1477 3 4.84 96.4059 0 
1478 3 6.05 98.5017 0 
1479 3 7.26 96.4059 0 
1480 3 8.47 98.5017 0 
1481 3 9.68 96.4059 0 
1482 3 10.89 98.5017 0 
1483 3 12.1 96.4059 0 
1484 3 13.31 98.5017 0 
1485 3 14.52 96.4059 0 
1486 3 15.73 98.5017 0 
1487 3 16.94 96.4059 0 
1488 3 18.15 98.5017 0 
1489 3 19.36 96.4059 0 
1490 3 20.57 98.5017 0 
1491 3 21.78 96.4059 0 
1492 3 22.99 98.5017 0 
1493 3 24.2 96.4059 0 
1494 3 25.41 98.5017 0 
1495 3 26.62 96.4059 0 
1496 3 27.83 98.5017 0 
1497 3 29.04 96.4059 0 
1498 3 30.25 98.5017 0 
1499 3 31.46 96.4059 0 
1500 3 32.67 98.5017 0 
1501 3 33.88 96.4059 0 
1502 3 35.09 98.5017 0 
1503 3 36.3 96.4059 0 
1504 3 37.51 98.5017 0 
1505 3 38.72 96.4059 0 
1506 3 39.93 98.5017 0 
1507 3 41.14 96.4059 0 
1508 3 42.35 98.5017 0 
1509 3 43.56 96.4059 0 
1510 3 44.77 98.5017 0 
1511 3 45.98 96.4059 0 
1512 3 47.19 98.5017 0 
1513 3 48.4 96.4059 0 
1514 3 49.61 98.5017 0 
1515 3 50.82 96.4059 0 
1516 3 52.03 98.5017 0 
1517 3 53.24 96.4059 0 
1518 3 54.45 98.5017 0 
1519 3 55.66 96.4059 0 
1520 3 56.87 98.5017 0 
1521 3 58.08 96.4059 0 
1522 3 59.29 98.5017 0 
1523 3 60.5 96.4059 0 
1524 3 61.71 98.5017 0 
1525 3 62.92 96.4059 0 
1526 3 64.13 98.5017 0 
1527 3 65.34 96.4059 0 
1528 3 66.55 98.5017 0 
1529 3 67.76 96.4059 0 
1530 3 68.97 98.5017 0 
1531 3 70.18 96.4059 0 
1532 3 71.39 98.5017 0 
1533 3 72.6 96.4059 0 
1534 3 73.81 98.5017 0 
1535 3 75.02 96.4059 0 
1536 3 76.23 98.5017 0 
ITEM: TIMESTEP
6 1.20148e+11
ITEM: NUMBER OF ATOMS
1536
ITEM: BOX BOUNDS
0 77.44
0 100.598
-1.21 1.21
ITEM: ATOMS id type x y z
1 2 0 0 0 
2 2 1.21 2.09578 0 
3 2 2.42 0 0 
4 2 3.63 2.09578 0 
5 2 4.84 0 0 
6 2 6.05 2.09578 0 
7 2 7.26 0 0 
8 2 8.47 2.09578 0 
9 2 9.68 0 0 
10 2 10.89 2.09578 0 
11 2 12.1 0 0 
12 2 13.31 2.09578 0 
13 2 14.52 0 0 
14 2 15.73 2.09578 0 
15 2 16.94 0 0 
16 2 18.15 2.09578 0 
17 2 19.36 0 0 
18 2 20.57 2.09578 0 
19 2 21.78 0 0 
20 2 22.99 2.09578 0 
21 2 24.2 0 0 
22 2 25.41 2.09578 0 
23 2 26.62 0 0 
24 2 27.83 2.09578 0 
25 2 29.04 0 0 
26 2 30.25 2.09578 0 
27 2 31.46 0 0 
28 2 32.67 2.09578 0 
29 2 33.88 0 0 
30 2 35.09 2.09578 0 
31 2 36.3 0 0 
32 2 37.51 2.09578 0 
33 2 38.72 0 0 
34 2 39.93 2.09578 0 
35 2 41.14 0 0 
36 2 42.35 2.09578 0 
37 2 43.56 0 0 
38 2 44.77 2.09578 0 
39 2 45.98 0 0 
40 2 47.19 2.09578 0 
41 2 48.4 0 0 
42 2 49.61 2.09578 0 
43 2 50.82 0 0 
44 2 52.03 2.09578 0 
45 2 53.24 0 0 
46 2 54.45 2.09578 0 
47 2 55.66 0 0 
48 2 56.87 2.09578 0 
49 2 58.08 0 0 
50 2 59.29 2.09578 0 
51 2 60.5 0 0 
52 2 61.71 2.09578 0 
53 2 62.92 0 0 
54 2 64.13 2.09578 0 
55 2 65.34 0 0 
56 2 66.55 2.09578 0 
57 2 67.76 0 0 
58 2 68.97 2.09578 0 
59 2 70.18 0 0 
60 2 71.39 2.09578 0 
61 2 72.6 0 0 
62 2 73.81 2.09578 0 
63 2 75.02 0 0 
64 2 76.23 2.09578 0 
65 2 0 4.19156 0 
66 2 1.21 6.28734 0 
67 2 2.42 4.19156 0 
68 2 3.63 6.28734 0 
69 2 4.84 4.19156 0 
70 2 6.05 6.28734 0 
71 2 7.26 4.19156 0 
72 2 8.47 6.28734 0 
73 2 9.68 4.19156 0 
74 2 10.89 6.28734 0 
75 2 12.1 4.19156 0 
76 2 13.31 6.28734 0 
77 2 14.52 4.19156 0 
78 2 15.73 6.28734 0 
79 2 16.94 4.19156 0 
80 2 18.15 6.28734 0 
81 2 19.36 4.19156 0 
82 2 20.57 6.28734 0 
83 2 21.78 4.19156 0 
84 2 22.99 6.28734 0 
85 2 24.2 4.19156 0 
86 2 25.41 6.28734 0 
87 2 26.62 4.19156 0 
88 2 27.83 6.28734 0 
89 2 29.04 4.19156 0 
90 2 30.25 6.28734 0 
91 2 31.46 4.19156 0 
92 2 32.67 6.28734 0 
93 2 33.88 4.19156 0 
94 2 35.09 6.28734 0 
95 2 36.3 4.19156 0 
96 2 37.51 6.28734 0 
97 2 38.72 4.19156 0 
98 2 39.93 6.28734 0 
99 2 41.14 4.19156 0 
100 2 42.35 6.28734 0 
101 2 43.56 4.19156 0 
102 2 44.77 6.28734 0 
103 2 45.98 4.19156 0 
104 2 47.19 6.28734 0 
105 2 48.4 4.19156 0 
106 2 49.61 6.28734 0 
107 2 50.82 4.19156 0 
108 2 52.03 6.28734 0 
109 2 53.24 4.19156 0 
110 2 54.45 6.28734 0 
111 2 55.66 4.19156 0 
112 2 56.87 6.28734 0 
113 2 58.08 4.19156 0 
114 2 59.29 6.28734 0 
115 2 60.5 4.19156 0 
116 2 61.71 6.28734 0 
117 2 62.92 4.19156 0 
118 1 64.13 6.28734 0 
119 2 65.34 4.19156 0 
120 2 66.55 6.28734 0 
121 2 67.76 4.19156 0 
122 2 68.97 6.28734 0 
123 2 70.18 4.19156 0 
124 2 71.39 6.28734 0 
125 2 72.6 4.19156 0 
126 2 73.81 6.28734 0 
127 2 75.02 4.19156 0 
128 2 76.23 6.28734 0 
129 2 0 8.38313 0 
130 2 1.21 10.4789 0 
131 2 2.42 8.38313 0 
132 1 3.63 10.4789 0 
133 2 4.84 8.38313 0 
134 2 6.05 10.4789 0 
135 2 7.26 8.38313 0 
136 2 8.47 10.4789 0 
137 2 9.68 8.38313 0 
138 2 10.89 10.4789 0 
139 2 12.1 8.38313 0 
140 2 13.31 10.4789 0 
141 2 14.52 8.38313 0 
142 2 15.73 10.4789 0 
143 2 16.94 8.38313 0 
144 2 18.15 10.4789 0 
145 2 19.36 8.38313 0 
146 2 20.57 10.4789 0 
147 2 21.78 8.38313 0 
148 2 22.99 10.4789 0 
149 2 24.2 8.38313 0 
150 2 25.41 10.4789 0 
151 2 26.62 8.38313 0 
152 2 27.83 10.4789 0 
153 2 29.04 8.38313 0 
154 2 30.25 10.4789 0 
155 2 31.46 8.38313 0 
156 2 32.67 10.4789 0 
157 2 33.88 8.38313 0 
158 2 35.09 10.4789 0 
159 2 36.3 8.38313 0 
160 2 37.51 10.4789 0 
161 2 38.72 8.38313 0 
162 2 39.93 10.4789 0 
163 2 41.14 8.38313 0 
164 2 42.35 10.4789 0 
165 2 43.56 8.38313 0 
166 2 44.77 10.4789 0 
167 2 45.98 8.38313 0 
168 2 47.19 10.4789 0 
169 2 48.4 8.38313 0 
170 2 49.61 10.4789 0 
171 2 50.82 8.38313 0 
172 2 52.03 10.4789 0 
173 2 53.24 8.38313 0 
174 2 54.45 10.4789 0 
175 2 55.66 8.38313 0 
176 2 56.87 10.4789 0 
177 2 58.08 8.38313 0 
178 2 59.29 10.4789 0 
179 2 60.5 8.38313 0 
180 1 61.71 10.4789 0 
181 1 62.92 8.38313 0 
182 2 64.13 10.4789 0 
183 2 65.34 8.38313 0 
184 2 66.55 10.4789 0 
185 2 67.76 8.38313 0 
186 2 68.97 10.4789 0 
187 2 70.18 8.38313 0 
188 2 71.39 10.4789 0 
189 2 72.6 8.38313 0 
190 2 73.81 10.4789 0 
191 2 75.02 8.38313 0 
192 2 76.23 10.4789 0 
193 2 0 12.5747 0 
194 2 1.21 14.6705 0 
195 1 2.42 12.5747 0 
196 1 3.63 14.6705 0 
197 1 4.84 12.5747 0 
198 1 6.05 14.6705 0 
199 2 7.26 12.5747 0 
200 1 8.47 14.6705 0 
201 2 9.68 12.5747 0 
202 2 10.89 14.6705 0 
203 2 12.1 12.5747 0 
204 2 13.31 14.6705 0 
205 2 14.52 12.5747 0 
206 2 15.73 14.6705 0 
207 2 16.94 12.5747 0 
208 2 18.15 14.6705 0 
209 2 19.36 12.5747 0 
210 2 20.57 14.6705 0 
211 2 21.78 12.5747 0 
212 2 22.99 14.6705 0 
213 2 24.2 12.5747 0 
214 2 25.41 14.6705 0 
215 2 26.62 12.5747 0 
216 2 27.83 14.6705 0 
217 2 29.04 12.5747 0 
218 2 30.25 14.6705 0 
219 2 31.46 12.5747 0 
220 2 32.67 14.6705 0 
221 2 33.88 12.5747 0 
222 2 35.09 14.6705 0 
223 2 36.3 12.5747 0 
224 2 37.51 14.6705 0 
225 2 38.72 12.5747 0 
226 2 39.93 14.6705 0 
227 2 41.14 12.5747 0 
228 2 42.35 14.6705 0 
229 2 43.56 12.5747 0 
230 2 44.77 14.6705 0 
231 2 45.98 12.5747 0 
232 2 47.19 14.6705 0 
233 2 48.4 12.5747 0 
234 2 49.61 14.6705 0 
235 2 50.82 12.5747 0 
236 2 52.03 14.6705 0 
237 2 53.24 12.5747 0 
238 2 54.45 14.6705 0 
239 2 55.66 12.5747 0 
240 1 56.87 14.6705 0 
241 2 58.08 12.5747 0 
242 1 59.29 14.6705 0 
243 1 60.5 12.5747 0 
244 1 61.71 14.6705 0 
245 1 62.92 12.5747 0 
246 1 64.13 14.6705 0 
247 2 65.34 12.5747 0 
248 2 66.55 14.6705 0 
249 2 67.76 12.5747 0 
250 2 68.97 14.6705 0 
251 2 70.18 12.5747 0 
252 2 71.39 14.6705 0 
253 2 72.6 12.5747 0 
254 2 73.81 14.6705 0 
255 2 75.02 12.5747 0 
256 2 76.23 14.6705 0 
257 2 0 16.7663 0 
258 2 1.21 18.862 0 
259 2 2.42 16.7663 0 
260 2 3.63 18.862 0 
261 1 4.84 16.7663 0 
262 1 6.05 18.862 0 
263 1 7.26 16.7663 0 
264 1 8.47 18.862 0 
265 1 9.68 16.7663 0 
266 1 10.89 18.862 0 
267 2 12.1 16.7663 0 
268 1 13.31 18.862 0 
269 2 14.52 16.7663 0 
270 1 15.73 18.862 0 
271 2 16.94 16.7663 0 
272 2 18.15 18.862 0 
273 2 19.36 16.7663 0 
274 2 20.57 18.862 0 
275 2 21.78 16.7663 0 
276 2 22.99 18.862 0 
277 2 24.2 16.7663 0 
278 2 25.41 18.862 0 
279 2 26.62 16.7663 0 
280 2 27.83 18.862 0 
281 2 29.04 16.7663 0 
282 2 30.25 18.862 0 
283 2 31.46 16.7663 0 
284 2 32.67 18.862 0 
285 2 33.88 16.7663 0 
286 2 35.09 18.862 0 
287 2 36.3 16.7663 0 
288 2 37.51 18.862 0 
289 2 38.72 16.7663 0 
290 2 39.93 18.862 0 
291 2 41.14 16.7663 0 
292 2 42.35 18.862 0 
293 2 43.56 16.7663 0 
294 2 44.77 18.862 0 
295 2 45.98 16.7663 0 
296 2 47.19 18.862 0 
297 2 48.4 16.7663 0 
298 1 49.61 18.862 0 
299 1 50.82 16.7663 0 
300 1 52.03 18.862 0 
301 1 53.24 16.7663 0 
302 1 54.45 18.862 0 
303 1 55.66 16.7663 0 
304 1 56.87 18.862 0 
305 1 58.08 16.7663 0 
306 1 59.29 18.862 0 
307 1 60.5 16.7663 0 
308 1 61.71 18.862 0 
309 1 62.92 16.7663 0 
310 1 64.13 18.862 0 
311 1 65.34 16.7663 0 
312 1 66.55 18.862 0 
313 2 67.76 16.7663 0 
314 2 68.97 18.862 0 
315 2 70.18 16.7663 0 
316 2 71.39 18.862 0 
317 2 72.6 16.7663 0 
318 2 73.81 18.862 0 
319 2 75.02 16.7663 0 
320 2 76.23 18.862 0 
321 2 0 20.9578 0 
322 2 1.21 23.0536 0 
323 2 2.42 20.9578 0 
324 2 3.63 23.0536 0 
325 2 4.84 20.9578 0 
326 1 6.05 23.0536 0 
327 1 7.26 20.9578 0 
328 1 8.47 23.0536 0 
329 1 9.68 20.9578 0 
330 1 10.89 23.0536 0 
331 1 12.1 20.9578 0 
332 1 13.31 23.0536 0 
333 1 14.52 20.9578 0 
334 1 15.73 23.0536 0 
335 1 16.94 20.9578 0 
336 1 18.15 23.0536 0 
337 2 19.36 20.9578 0 
338 2 20.57 23.0536 0 
339 2 21.78 20.9578 0 
340 2 22.99 23.0536 0 
341 2 24.2 20.9578 0 
342 2 25.41 23.0536 0 
343 2 26.62 20.9578 0 
344 2 27.83 23.0536 0 
345 2 29.04 20.9578 0 
346 1 30.25 23.0536 0 
347 2 31.46 20.9578 0 
348 1 32.67 23.0536 0 
349 2 33.88 20.9578 0 
350 1 35.09 23.0536 0 
351 1 36.3 20.9578 0 
352 1 37.51 23.0536 0 
353 1 38.72 20.9578 0 
354 1 39.93 23.0536 0 
355 2 41.14 20.9578 0 
356 2 42.35 23.0536 0 
357 2 43.56 20.9578 0 
358 2 44.77 23.0536 0 
359 2 45.98 20.9578 0 
360 2 47.19 23.0536 0 
361 2 48.4 20.9578 0 
362 2 49.61 23.0536 0 
363 1 50.82 20.9578 0 
364 1 52.03 23.0536 0 
365 1 53.24 20.9578 0 
366 1 54.45 23.0536 0 
367 1 55.66 20.9578 0 
368 1 56.87 23.0536 0 
369 1 58.08 20.9578 0 
370 1 59.29 23.0536 0 
371 1 60.5 20.9578 0 
372 1 61.71 23.0536 0 
373 1 62.92 20.9578 0 
374 1 64.13 23.0536 0 
375 1 65.34 20.9578 0 
376 1 66.55 23.0536 0 
377 1 67.76 20.9578 0 
378 1 68.97 23.0536 0 
379 2 70.18 20.9578 0 
380 1 71.39 23.0536 0 
381 2 72.6 20.9578 0 
382 2 73.81 23.0536 0 
383 2 75.02 20.9578 0 
384 2 76.23 23.0536 0 
385 2 0 25.1494 0 
386 1 1.21 27.2452 0 
387 1 2.42 25.1494 0 
388 1 3.63 27.2452 0 
389 1 4.84 25.1494 0 
390 1 6.05 27.2452 0 
391 1 7.26 25.1494 0 
392 1 8.47 27.2452 0 
393 1 9.68 25.1494 0 
394 1 10.89 27.2452 0 
395 1 12.1 25.1494 0 
396 1 13.31 27.2452 0 
397 1 14.52 25.1494 0 
398 1 15.73 27.2452 0 
399 1 16.94 25.1494 0 
400 1 18.15 27.2452 0 
401 2 19.36 25.1494 0 
402 1 20.57 27.2452 0 
403 2 21.78 25.1494 0 
404 2 22.99 27.2452 0 
405 2 24.2 25.1494 0 
406 2 25.41 27.2452 0 
407 2 26.62 25.1494 0 
408 1 27.83 27.2452 0 
409 1 29.04 25.1494 0 
410 1 30.25 27.2452 0 
411 1 31.46 25.1494 0 
412 1 32.67 27.2452 0 
413 1 33.88 25.1494 0 
414 1 35.09 27.2452 0 
415 1 36.3 25.1494 0 
416 1 37.51 27.2452 0 
417 1 38.72 25.1494 0 
418 1 39.93 27.2452 0 
419 1 41.14 25.1494 0 
420 1 42.35 27.2452 0 
421 2 43.56 25.1494 0 
422 1 44.77 27.2452 0 
423 2 45.98 25.1494 0 
424 2 47.19 27.2452 0 
425 2 48.4 25.1494 0 
426 2 49.61 27.2452 0 
427 2 50.82 25.1494 0 
428 2 52.03 27.2452 0 
429 1 53.24 25.1494 0 
430 1 54.45 27.2452 0 
431 1 55.66 25.1494 0 
432 1 56.87 27.2452 0 
433 1 58.08 25.1494 0 
434 1 59.29 27.2452 0 
435 1 60.5 25.1494 0 
436 1 61.71 27.2452 0 
437 1 62.92 25.1494 0 
438 1 64.13 27.2452 0 
439 1 65.34 25.1494 0 
440 1 66.55 27.2452 0 
441 1 67.76 25.1494 0 
442 1 68.97 27.2452 0 
443 1 70.18 25.1494 0 
444 1 71.39 27.2452 0 
445 1 72.6 25.1494 0 
446 1 73.81 27.2452 0 
447 2 75.02 25.1494 0 
448 1 76.23 27.2452 0 
449 1 0 29.3409 0 
450 1 1.21 31.4367 0 
451 1 2.42 29.3409 0 
452 1 3.63 31.4367 0 
453 1 4.84 29.3409 0 
454 1 6.05 31.4367 0 
455 1 7.26 29.3409 0 
456 1 8.47 31.4367 0 
457 1 9.68 29.3409 0 
458 1 10.89 31.4367 0 
459 1 12.1 29.3409 0 
460 1 13.31 31.4367 0 
461 1 14.52 29.3409 0 
462 1 15.73 31.4367 0 
463 1 16.94 29.3409 0 
464 1 18.15 31.4367 0 
465 1 19.36 29.3409 0 
466 1 20.57 31.4367 0 
467 1 21.78 29.3409 0 
468 1 22.99 31.4367 0 
469 1 24.2 29.3409 0 
470 1 25.41 31.4367 0 
471 1 26.62 29.3409 0 
472 1 27.83 31.4367 0 
473 1 29.04 29.3409 0 
474 1 30.25 31.4367 0 
475 1 31.46 29.3409 0 
476 1 32.67 31.4367 0 
477 1 33.88 29.3409 0 
478 1 35.09 31.4367 0 
479 1 36.3 29.3409 0 
480 1 37.51 31.4367 0 
481 1 38.72 29.3409 0 
482 1 39.93 31.4367 0 
483 1 41.14 29.3409 0 
484 1 42.35 31.4367 0 
485 1 43.56 29.3409 0 
486 1 44.77 31.4367 0 
487 1 45.98 29.3409 0 
488 1 47.19 31.4367 0 
489 1 48.4 29.3409 0 
490 1 49.61 31.4367 0 
491 2 50.82 29.3409 0 
492 1 52.03 31.4367 0 
493 1 53.24 29.3409 0 
494 1 54.45 31.4367 0 
495 1 55.66 29.3409 0 
496 1 56.87 31.4367 0 
497 1 58.08 29.3409 0 
498 1 59.29 31.4367 0 
499 1 60.5 29.3409 0 
500 1 61.71 31.4367 0 
501 1 62.92 29.3409 0 
502 1 64.13 31.4367 0 
503 1 65.34 29.3409 0 
504 1 66.55 31.4367 0 
505 1 67.76 29.3409 0 
506 1 68.97 31.4367 0 
507 1 70.18 29.3409 0 
508 1 71.39 31.4367 0 
509 1 72.6 29.3409 0 
510 1 73.81 31.4367 0 
511 1 75.02 29.3409 0 
512 1 76.23 31.4367 0 
513 1 0 33.5325 0 
514 1 1.21 35.6283 0 
515 1 2.42 33.5325 0 
516 1 3.63 35.6283 0 
517 1 4.84 33.5325 0 
518 1 6.05 35.6283 0 
519 1 7.26 33.5325 0 
520 1 8.47 35.6283 0 
521 1 9.68 33.5325 0 
522 1 10.89 35.6283 0 
523 1 12.1 33.5325 0 
524 1 13.31 35.6283 0 
525 1 14.52 33.5325 0 
526 1 15.73 35.6283 0 
527 1 16.94 33.5325 0 
528 1 18.15 35.6283 0 
529 1 19.36 33.5325 0 
530 1 20.57 35.6283 0 
531 1 21.78 33.5325 0 
532 1 22.99 35.6283 0 
533 1 24.2 33.5325 0 
534 1 25.41 35.6283 0 
535 1 26.62 33.5325 0 
536 1 27.83 35.6283 0 
537 1 29.04 33.5325 0 
538 1 30.25 35.6283 0 
539 1 31.46 33.5325 0 
540 1 32.67 35.6283 0 
541 1 33.88 33.5325 0 
542 1 35.09 35.6283 0 
543 1 36.3 33.5325 0 
544 1 37.51 35.6283 0 
545 1 38.72 33.5325 0 
546 1 39.93 35.6283 0 
547 1 41.14 33.5325 0 
548 1 42.35 35.6283 0 
549 1 43.56 33.5325 0 
550 1 44.77 35.6283 0 
551 1 45.98 33.5325 0 
552 1 47.19 35.6283 0 
553 1 48.4 33.5325 0 
554 1 49.61 35.6283 0 
555 1 50.82 33.5325 0 
556 1 52.03 35.6283 0 
557 1 53.24 33.5325 0 
558 1 54.45 35.6283 0 
559 1 55.66 33.5325 0 
560 1 56.87 35.6283 0 
561 1 58.08 33.5325 0 
562 1 59.29 35.6283 0 
563 1 60.5 33.5325 0 
564 1 61.71 35.6283 0 
565 1 62.92 33.5325 0 
566 1 64.13 35.6283 0 
567 1 65.34 33.5325 0 
568 1 66.55 35.6283 0 
569 1 67.76 33.5325 0 
570 1 68.97 35.6283 0 
571 1 70.18 33.5325 0 
572 1 71.39 35.6283 0 
573 1 72.6 33.5325 0 
574 1 73.81 35.6283 0 
575 1 75.02 33.5325 0 
576 1 76.23 35.6283 0 
577 1 0 37.7241 0 
578 1 1.21 39.8198 0 
579 1 2.42 37.7241 0 
580 1 3.63 39.8198 0 
581 1 4.84 37.7241 0 
582 1 6.05 39.8198 0 
583 1 7.26 37.7241 0 
584 1 8.47 39.8198 0 
585 1 9.68 37.7241 0 
586 1 10.89 39.8198 0 
587 1 12.1 37.7241 0 
588 1 13.31 39.8198 0 
589 1 14.52 37.7241 0 
590 1 15.73 39.8198 0 
591 1 16.94 37.7241 0 
592 1 18.15 39.8198 0 
593 1 19.36 37.7241 0 
594 1 20.57 39.8198 0 
595 1 21.78 37.7241 0 
596 1 22.99 39.8198 0 
597 1 24.2 37.7241 0 
598 1 25.41 39.8198 0 
599 1 26.62 37.7241 0 
600 1 27.83 39.8198 0 
601 1 29.04 37.7241 0 
602 1 30.25 39.8198 0 
603 1 31.46 37.7241 0 
604 1 32.67 39.8198 0 
605 1 33.88 37.7241 0 
606 1 35.09 39.8198 0 
607 1 36.3 37.7241 0 
608 1 37.51 39.8198 0 
609 1 38.72 37.7241 0 
610 1 39.93 39.8198 0 
611 1 41.14 37.7241 0 
612 1 42.35 39.8198 0 
613 1 43.56 37.7241 0 
614 1 44.77 39.8198 0 
615 1 45.98 37.7241 0 
616 1 47.19 39.8198 0 
617 1 48.4 37.7241 0 
618 1 49.61 39.8198 0 
619 1 50.82 37.7241 0 
620 1 52.03 39.8198 0 
621 1 53.24 37.7241 0 
622 1 54.45 39.8198 0 
623 1 55.66 37.7241 0 
624 1 56.87 39.8198 0 
625 1 58.08 37.7241 0 
626 1 59.29 39.8198 0 
627 1 60.5 37.7241 0 
628 1 61.71 39.8198 0 
629 1 62.92 37.7241 0 
630 1 64.13 39.8198 0 
631 1 65.34 37.7241 0 
632 1 66.55 39.8198 0 
633 1 67.76 37.7241 0 
634 1 68.97 39.8198 0 
635 1 70.18 37.7241 0 
636 1 71.39 39.8198 0 
637 1 72.6 37.7241 0 
638 1 73.81 39.8198 0 
639 1 75.02 37.7241 0 
640 1 76.23 39.8198 0 
641 1 0 41.9156 0 
642 1 1.21 44.0114 0 
643 1 2.42 41.9156 0 
644 1 3.63 44.0114 0 
645 1 4.84 41.9156 0 
646 1 6.05 44.0114 0 
647 1 7.26 41.9156 0 
648 1 8.47 44.0114 0 
649 1 9.68 41.9156 0 
650 1 10.89 44.0114 0 
651 1 12.1 41.9156 0 
652 1 13.31 44.0114 0 
653 1 14.52 41.9156 0 
654 1 15.73 44.0114 0 
655 1 16.94 41.9156 0 
656 1 18.15 44.0114 0 
657 1 19.36 41.9156 0 
658 1 20.57 44.0114 0 
659 1 21.78 41.9156 0 
660 1 22.99 44.0114 0 
661 1 24.2 41.9156 0 
662 1 25.41 44.0114 0 
663 1 26.62 41.9156 0 
664 1 27.83 44.0114 0 
665 1 29.04 41.9156 0 
666 1 30.25 44.0114 0 
667 1 31.46 41.9156 0 
668 1 32.67 44.0114 0 
669 1 33.88 41.9156 0 
670 1 35.09 44.0114 0 
671 1 36.3 41.9156 0 
672 1 37.51 44.0114 0 
673 1 38.72 41.9156 0 
674 1 39.93 44.0114 0 
675 1 41.14 41.9156 0 
676 1 42.35 44.0114 0 
677 1 43.56 41.9156 0 
678 1 44.77 44.0114 0 
679 1 45.98 41.9156 0 
680 1 47.19 44.0114 0 
681 1 48.4 41.9156 0 
682 1 49.61 44.0114 0 
683 1 50.82 41.9156 0 
684 1 52.03 44.0114 0 
685 1 53.24 41.9156 0 
686 1 54.45 44.0114 0 
687 1 55.66 41.9156 0 
688 1 56.87 44.0114 0 
689 1 58.08 41.9156 0 
690 1 59.29 44.0114 0 
691 1 60.5 41.9156 0 
692 1 61.71 44.0114 0 
693 1 62.92 41.9156 0 
694 1 64.13 44.0114 0 
695 1 65.34 41.9156 0 
696 1 66.55 44.0114 0 
697 1 67.76 41.9156 0 
698 1 68.97 44.0114 0 
699 1 70.18 41.9156 0 
700 1 71.39 44.0114 0 
701 1 72.6 41.9156 0 
702 1 73.81 44.0114 0 
703 1 75.02 41.9156 0 
704 1 76.23 44.0114 0 
705 1 0 46.1072 0 
706 1 1.21 48.203 0 
707 1 2.42 46.1072 0 
708 1 3.63 48.203 0 
709 1 4.84 46.1072 0 
710 1 6.05 48.203 0 
711 1 7.26 46.1072 0 
712 1 8.47 48.203 0 
713 1 9.68 46.1072 0 
714 1 10.89 48.203 0 
715 1 12.1 46.1072 0 
716 1 13.31 48.203 0 
717 1 14.52 46.1072 0 
718 1 15.73 48.203 0 
719 1 16.94 46.1072 0 
720 1 18.15 48.203 0 
721 1 19.36 46.1072 0 
722 1 20.57 48.203 0 
723 1 21.78 46.1072 0 
724 1 22.99 48.203 0 
725 1 24.2 46.1072 0 
726 1 25.41 48.203 0 
727 1 26.62 46.1072 0 
728 1 27.83 48.203 0 
729 1 29.04 46.1072 0 
730 1 30.25 48.203 0 
731 1 31.46 46.1072 0 
732 1 32.67 48.203 0 
733 1 33.88 46.1072 0 
734 1 35.09 48.203 0 
735 1 36.3 46.1072 0 
736 1 37.51 48.203 0 
737 1 38.72 46.1072 0 
738 1 39.93 48.203 0 
739 1 41.14 46.1072 0 
740 1 42.35 48.203 0 
741 1 43.56 46.1072 0 
742 1 44.77 48.203 0 
743 1 45.98 46.1072 0 
744 1 47.19 48.203 0 
745 1 48.4 46.1072 0 
746 1 49.61 48.203 0 
747 1 50.82 46.1072 0 
748 1 52.03 48.203 0 
749 1 53.24 46.1072 0 
750 1 54.45 48.203 0 
751 1 55.66 46.1072 0 
752 1 56.87 48.203 0 
753 1 58.08 46.1072 0 
754 1 59.29 48.203 0 
755 1 60.5 46.1072 0 
756 1 61.71 48.203 0 
757 1 62.92 46.1072 0 
758 1 64.13 48.203 0 
759 1 65.34 46.1072 0 
760 1 66.55 48.203 0 
761 1 67.76 46.1072 0 
762 1 68.97 48.203 0 
763 1 70.18 46.1072 0 
764 1 71.39 48.203 0 
765 1 72.6 46.1072 0 
766 1 73.81 48.203 0 
767 1 75.02 46.1072 0 
768 1 76.23 48.203 0 
769 1 0 50.2988 0 
770 1 1.21 52.3945 0 
771 1 2.42 50.2988 0 
772 1 3.63 52.3945 0 
773 1 4.84 50.2988 0 
774 1 6.05 52.3945 0 
775 1 7.26 50.2988 0 
776 1 8.47 52.3945 0 
777 1 9.68 50.2988 0 
778 1 10.89 52.3945 0 
779 1 12.1 50.2988 0 
780 1 13.31 52.3945 0 
781 1 14.52 50.2988 0 
782 1 15.73 52.3945 0 
783 1 16.94 50.2988 0 
784 1 18.15 52.3945 0 
785 1 19.36 50.2988 0 
786 1 20.57 52.3945 0 
787 1 21.78 50.2988 0 
788 1 22.99 52.3945 0 
789 1 24.2 50.2988 0 
790 1 25.41 52.3945 0 
791 1 26.62 50.2988 0 
792 1 27.83 52.3945 0 
793 1 29.04 50.2988 0 
794 1 30.25 52.3945 0 
795 1 31.46 50.2988 0 
796 1 32.67 52.3945 0 
797 1 33.88 50.2988 0 
798 1 35.09 52.3945 0 
799 1 36.3 50.2988 0 
800 1 37.51 52.3945 0 
801 1 38.72 50.2988 0 
802 1 39.93 52.3945 0 
803 1 41.14 50.2988 0 
804 1 42.35 52.3945 0 
805 1 43.56 50.2988 0 
806 1 44.77 52.3945 0 
807 1 45.98 50.2988 0 
808 1 47.19 52.3945 0 
809 1 48.4 50.2988 0 
810 1 49.61 52.3945 0 
811 1 50.82 50.2988 0 
812 1 52.03 52.3945 0 
813 1 53.24 50.2988 0 
814 1 54.45 52.3945 0 
815 1 55.66 50.2988 0 
816 1 56.87 52.3945 0 
817 1 58.08 50.2988 0 
818 1 59.29 52.3945 0 
819 1 60.5 50.2988 0 
820 1 61.71 52.3945 0 
821 1 62.92 50.2988 0 
822 1 64.13 52.3945 0 
823 1 65.34 50.2988 0 
824 1 66.55 52.3945 0 
825 1 67.76 50.2988 0 
826 1 68.97 52.3945 0 
827 1 70.18 50.2988 0 
828 1 71.39 52.3945 0 
829 1 72.6 50.2988 0 
830 1 73.81 52.3945 0 
831 1 75.02 50.2988 0 
832 1 76.23 52.3945 0 
833 1 0 54.4903 0 
834 1 1.21 56.5861 0 
835 1 2.42 54.4903 0 
836 1 3.63 56.5861 0 
837 1 4.84 54.4903 0 
838 1 6.05 56.5861 0 
839 1 7.26 54.4903 0 
840 1 8.47 56.5861 0 
841 1 9.68 54.4903 0 
842 1 10.89 56.5861 0 
843 1 12.1 54.4903 0 
844 1 13.31 56.5861 0 
845 1 14.52 54.4903 0 
846 1 15.73 56.5861 0 
847 1 16.94 54.4903 0 
848 1 18.15 56.5861 0 
849 1 19.36 54.4903 0 
850 1 20.57 56.5861 0 
851 1 21.78 54.4903 0 
852 1 22.99 56.5861 0 
853 1 24.2 54.4903 0 
854 1 25.41 56.5861 0 
855 1 26.62 54.4903 0 
856 1 27.83 56.5861 0 
857 1 29.04 54.4903 0 
858 1 30.25 56.5861 0 
859 1 31.46 54.4903 0 
860 1 32.67 56.5861 0 
861 1 33.88 54.4903 0 
862 1 35.09 56.5861 0 
863 1 36.3 54.4903 0 
864 1 37.51 56.5861 0 
865 1 38.72 54.4903 0 
866 1 39.93 56.5861 0 
867 1 41.14 54.4903 0 
868 1 42.35 56.5861 0 
869 1 43.56 54.4903 0 
870 1 44.77 56.5861 0 
871 1 45.98 54.4903 0 
872 1 47.19 56.5861 0 
873 1 48.4 54.4903 0 
874 1 49.61 56.5861 0 
875 1 50.82 54.4903 0 
876 1 52.03 56.5861 0 
877 1 53.24 54.4903 0 
878 1 54.45 56.5861 0 
879 1 55.66 54.4903 0 
880 1 56.87 56.5861 0 
881 1 58.08 54.4903 0 
882 1 59.29 56.5861 0 
883 1 60.5 54.4903 0 
884 1 61.71 56.5861 0 
885 1 62.92 54.4903 0 
886 1 64.13 56.5861 0 
887 1 65.34 54.4903 0 
888 1 66.55 56.5861 0 
889 1 67.76 54.4903 0 
890 1 68.97 56.5861 0 
891 1 70.18 54.4903 0 
892 1 71.39 56.5861 0 
893 1 72.6 54.4903 0 
894 1 73.81 56.5861 0 
895 1 75.02 54.4903 0 
896 1 76.23 56.5861 0 
897 1 0 58.6819 0 
898 1 1.21 60.7777 0 
899 1 2.42 58.6819 0 
900 1 3.63 60.7777 0 
901 1 4.84 58.6819 0 
902 1 6.05 60.7777 0 
903 1 7.26 58.6819 0 
904 1 8.47 60.7777 0 
905 1 9.68 58.6819 0 
906 1 10.89 60.7777 0 
907 1 12.1 58.6819 0 
908 1 13.31 60.7777 0 
909 1 14.52 58.6819 0 
910 1 15.73 60.7777 0 
911 1 16.94 58.6819 0 
912 1 18.15 60.7777 0 
913 1 19.36 58.6819 0 
914 1 20.57 60.7777 0 
915 1 21.78 58.6819 0 
916 1 22.99 60.7777 0 
917 1 24.2 58.6819 0 
918 1 25.41 60.7777 0 
919 1 26.62 58.6819 0 
920 1 27.83 60.7777 0 
921 1 29.04 58.6819 0 
922 1 30.25 60.7777 0 
923 1 31.46 58.6819 0 
924 1 32.67 60.7777 0 
925 1 33.88 58.6819 0 
926 1 35.09 60.7777 0 
927 1 36.3 58.6819 0 
928 1 37.51 60.7777 0 
929 1 38.72 58.6819 0 
930 1 39.93 60.7777 0 
931 1 41.14 58.6819 0 
932 1 42.35 60.7777 0 
933 1 43.56 58.6819 0 
934 1 44.77 60.7777 0 
935 1 45.98 58.6819 0 
936 1 47.19 60.7777 0 
937 1 48.4 58.6819 0 
938 1 49.61 60.7777 0 
939 1 50.82 58.6819 0 
940 1 52.03 60.7777 0 
941 1 53.24 58.6819 0 
942 1 54.45 60.7777 0 
943 1 55.66 58.6819 0 
944 1 56.87 60.7777 0 
945 1 58.08 58.6819 0 
946 1 59.29 60.7777 0 
947 1 60.5 58.6819 0 
948 1 61.71 60.7777 0 
949 1 62.92 58.6819 0 
950 1 64.13 60.7777 0 
951 1 65.34 58.6819 0 
952 1 66.55 60.7777 0 
953 1 67.76 58.6819 0 
954 1 68.97 60.7777 0 
955 1 70.18 58.6819 0 
956 1 71.39 60.7777 0 
957 1 72.6 58.6819 0 
958 1 73.81 60.7777 0 
959 1 75.02 58.6819 0 
960 1 76.23 60.7777 0 
961 1 0 62.8734 0 
962 1 1.21 64.9692 0 
963 1 2.42 62.8734 0 
964 1 3.63 64.9692 0 
965 1 4.84 62.8734 0 
966 1 6.05 64.9692 0 
967 1 7.26 62.8734 0 
968 1 8.47 64.9692 0 
969 1 9.68 62.8734 0 
970 1 10.89 64.9692 0 
971 1 12.1 62.8734 0 
972 1 13.31 64.9692 0 
973 1 14.52 62.8734 0 
974 1 15.73 64.9692 0 
975 1 16.94 62.8734 0 
976 1 18.15 64.9692 0 
977 1 19.36 62.8734 0 
978 1 20.57 64.9692 0 
979 1 21.78 62.8734 0 
980 1 22.99 64.9692 0 
981 1 24.2 62.8734 0 
982 1 25.41 64.9692 0 
983 1 26.62 62.8734 0 
984 1 27.83 64.9692 0 
985 1 29.04 62.8734 0 
986 1 30.25 64.9692 0 
987 1 31.46 62.8734 0 
988 1 32.67 64.9692 0 
989 1 33.88 62.8734 0 
990 1 35.09 64.9692 0 
991 1 36.3 62.8734 0 
992 1 37.51 64.9692 0 
993 1 38.72 62.8734 0 
994 1 39.93 64.9692 0 
995 1 41.14 62.8734 0 
996 1 42.35 64.9692 0 
997 1 43.56 62.8734 0 
998 1 44.77 64.9692 0 
999 1 45.98 62.8734 0 
1000 1 47.19 64.9692 0 
1001 1 48.4 62.8734 0 
1002 1 49.61 64.9692 0 
1003 1 50.82 62.8734 0 
1004 1 52.03 64.9692 0 
1005 1 53.24 62.8734 0 
1006 1 54.45 64.9692 0 
1007 1 55.66 62.8734 0 
1008 1 56.87 64.9692 0 
1009 1 58.08 62.8734 0 
1010 1 59.29 64.9692 0 
1011 1 60.5 62.8734 0 
1012 1 61.71 64.9692 0 
1013 1 62.92 62.8734 0 
1014 1 64.13 64.9692 0 
1015 1 65.34 62.8734 0 
1016 1 66.55 64.9692 0 
1017 1 67.76 62.8734 0 
1018 1 68.97 64.9692 0 
1019 1 70.18 62.8734 0 
1020 1 71.39 64.9692 0 
1021 1 72.6 62.8734 0 
1022 1 73.81 64.9692 0 
1023 1 75.02 62.8734 0 
1024 1 76.23 64.9692 0 
1025 1 0 67.065 0 
1026 1 1.21 69.1608 0 
1027 1 2.42 67.065 0 
1028 1 3.63 69.1608 0 
1029 1 4.84 67.065 0 
1030 1 6.05 69.1608 0 
1031 1 7.26 67.065 0 
1032 1 8.47 69.1608 0 
1033 1 9.68 67.065 0 
1034 1 10.89 69.1608 0 
1035 1 12.1 67.065 0 
1036 1 13.31 69.1608 0 
1037 1 14.52 67.065 0 
1038 1 15.73 69.1608 0 
1039 1 16.94 67.065 0 
1040 1 18.15 69.1608 0 
1041 1 19.36 67.065 0 
1042 1 20.57 69.1608 0 
1043 1 21.78 67.065 0 
1044 1 22.99 69.1608 0 
1045 1 24.2 67.065 0 
1046 1 25.41 69.1608 0 
1047 1 26.62 67.065 0 
1048 1 27.83 69.1608 0 
1049 1 29.04 67.065 0 
1050 1 30.25 69.1608 0 
1051 1 31.46 67.065 0 
1052 1 32.67 69.1608 0 
1053 1 33.88 67.065 0 
1054 1 35.09 69.1608 0 
1055 1 36.3 67.065 0 
1056 1 37.51 69.1608 0 
1057 1 38.72 67.065 0 
1058 1 39.93 69.1608 0 
1059 1 41.14 67.065 0 
1060 1 42.35 69.1608 0 
1061 1 43.56 67.065 0 
1062 1 44.77 69.1608 0 
1063 1 45.98 67.065 0 
1064 1 47.19 69.1608 0 
1065 1 48.4 67.065 0 
1066 1 49.61 69.1608 0 
1067 1 50.82 67.065 0 
1068 1 52.03 69.1608 0 
1069 1 53.24 67.065 0 
1070 1 54.45 69.1608 0 
1071 1 55.66 67.065 0 
1072 1 56.87 69.1608 0 
1073 1 58.08 67.065 0 
1074 1 59.29 69.1608 0 
1075 1 60.5 67.065 0 
1076 1 61.71 69.1608 0 
1077 1 62.92 67.065 0 
1078 1 64.13 69.1608 0 
1079 1 65.34 67.065 0 
1080 1 66.55 69.1608 0 
1081 1 67.76 67.065 0 
1082 1 68.97 69.1608 0 
1083 1 70.18 67.065 0 
1084 1 71.39 69.1608 0 
1085 1 72.6 67.065 0 
1086 1 73.81 69.1608 0 
1087 1 75.02 67.065 0 
1088 1 76.23 69.1608 0 
1089 1 0 71.2566 0 
1090 1 1.21 73.3524 0 
1091 1 2.42 71.2566 0 
1092 1 3.63 73.3524 0 
1093 1 4.84 71.2566 0 
1094 1 6.05 73.3524 0 
1095 1 7.26 71.2566 0 
1096 1 8.47 73.3524 0 
1097 1 9.68 71.2566 0 
1098 1 10.89 73.3524 0 
1099 1 12.1 71.2566 0 
1100 1 13.31 73.3524 0 
1101 1 14.52 71.2566 0 
1102 1 15.73 73.3524 0 
1103 1 16.94 71.2566 0 
1104 1 18.15 73.3524 0 
1105 1 19.36 71.2566 0 
1106 1 20.57 73.3524 0 
1107 1 21.78 71.2566 0 
1108 1 22.99 73.3524 0 
1109 1 24.2 71.2566 0 
1110 1 25.41 73.3524 0 
1111 1 26.62 71.2566 0 
1112 1 27.83 73.3524 0 
1113 1 29.04 71.2566 0 
1114 1 30.25 73.3524 0 
1115 1 31.46 71.2566 0 
1116 1 32.67 73.3524 0 
1117 1 33.88 71.2566 0 
1118 1 35.09 73.3524 0 
1119 1 36.3 71.2566 0 
1120 1 37.51 73.3524 0 
1121 1 38.72 71.2566 0 
1122 1 39.93 73.3524 0 
1123 1 41.14 71.2566 0 
1124 1 42.35 73.3524 0 
1125 1 43.56 71.2566 0 
1126 1 44.77 73.3524 0 
1127 1 45.98 71.2566 0 
1128 1 47.19 73.3524 0 
1129 1 48.4 71.2566 0 
1130 1 49.61 73.3524 0 
1131 1 50.82 71.2566 0 
1132 1 52.03 73.3524 0 
1133 1 53.24 71.2566 0 
1134 1 54.45 73.3524 0 
1135 1 55.66 71.2566 0 
1136 1 56.87 73.3524 0 
1137 1 58.08 71.2566 0 
1138 1 59.29 73.3524 0 
1139 1 60.5 71.2566 0 
1140 1 61.71 73.3524 0 
1141 1 62.92 71.2566 0 
1142 1 64.13 73.3524 0 
1143 1 65.34 71.2566 0 
1144 1 66.55 73.3524 0 
1145 1 67.76 71.2566 0 
1146 1 68.97 73.3524 0 
1147 1 70.18 71.2566 0 
1148 1 71.39 73.3524 0 
1149 1 72.6 71.2566 0 
1150 1 73.81 73.3524 0 
1151 1 75.02 71.2566 0 
1152 1 76.23 73.3524 0 
1153 1 0 75.4481 0 
1154 1 1.21 77.5439 0 
1155 1 2.42 75.4481 0 
1156 1 3.63 77.5439 0 
1157 1 4.84 75.4481 0 
1158 1 6.05 77.5439 0 
1159 1 7.26 75.4481 0 
1160 1 8.47 77.5439 0 
1161 1 9.68 75.4481 0 
1162 1 10.89 77.5439 0 
1163 1 12.1 75.4481 0 
1164 1 13.31 77.5439 0 
1165 1 14.52 75.4481 0 
1166 1 15.73 77.5439 0 
1167 1 16.94 75.4481 0 
1168 1 18.15 77.5439 0 
1169 1 19.36 75.4481 0 
1170 1 20.57 77.5439 0 
1171 1 21.78 75.4481 0 
1172 1 22.99 77.5439 0 
1173 1 24.2 75.4481 0 
1174 1 25.41 77.5439 0 
1175 1 26.62 75.4481 0 
1176 1 27.83 77.5439 0 
1177 1 29.04 75.4481 0 
1178 1 30.25 77.5439 0 
1179 1 31.46 75.4481 0 
1180 1 32.67 77.5439 0 
1181 1 33.88 75.4481 0 
1182 1 35.09 77.5439 0 
1183 1 36.3 75.4481 0 
1184 1 37.51 77.5439 0 
1185 1 38.72 75.4481 0 
1186 1 39.93 77.5439 0 
1187 1 41.14 75.4481 0 
1188 1 42.35 77.5439 0 
1189 1 43.56 75.4481 0 
1190 1 44.77 77.5439 0 
1191 1 45.98 75.4481 0 
1192 1 47.19 77.5439 0 
1193 1 48.4 75.4481 0 
1194 1 49.61 77.5439 0 
1195 1 50.82 75.4481 0 
1196 1 52.03 77.5439 0 
1197 1 53.24 75.4481 0 
1198 1 54.45 77.5439 0 
1199 1 55.66 75.4481 0 
1200 1 56.87 77.5439 0 
1201 1 58.08 75.4481 0 
1202 1 59.29 77.5439 0 
1203 1 60.5 75.4481 0 
1204 1 61.71 77.5439 0 
1205 1 62.92 75.4481 0 
1206 1 64.13 77.5439 0 
1207 1 65.34 75.4481 0 
1208 1 66.55 77.5439 0 
1209 1 67.76 75.4481 0 
1210 1 68.97 77.5439 0 
1211 1 70.18 75.4481 0 
1212 1 71.39 77.5439 0 
1213 1 72.6 75.4481 0 
1214 1 73.81 77.5439 0 
1215 1 75.02 75.4481 0 
1216 1 76.23 77.5439 0 
1217 1 0 79.6397 0 
1218 1 1.21 81.7355 0 
1219 1 2.42 79.6397 0 
1220 1 3.63 81.7355 0 
1221 1 4.84 79.6397 0 
1222 1 6.05 81.7355 0 
1223 1 7.26 79.6397 0 
1224 1 8.47 81.7355 0 
1225 1 9.68 79.6397 0 
1226 1 10.89 81.7355 0 
1227 1 12.1 79.6397 0 
1228 1 13.31 81.7355 0 
1229 1 14.52 79.6397 0 
1230 1 15.73 81.7355 0 
1231 1 16.94 79.6397 0 
1232 1 18.15 81.7355 0 
1233 1 19.36 79.6397 0 
1234 1 20.57 81.7355 0 
1235 1 21.78 79.6397 0 
1236 1 22.99 81.7355 0 
1237 1 24.2 79.6397 0 
1238 1 25.41 81.7355 0 
1239 1 26.62 79.6397 0 
1240 1 27.83 81.7355 0 
1241 1 29.04 79.6397 0 
1242 1 30.25 81.7355 0 
1243 1 31.46 79.6397 0 
1244 1 32.67 81.7355 0 
1245 1 33.88 79.6397 0 
1246 1 35.09 81.7355 0 
1247 1 36.3 79.6397 0 
1248 1 37.51 81.7355 0 
1249 1 38.72 79.6397 0 
1250 1 39.93 81.7355 0 
1251 1 41.14 79.6397 0 
1252 1 42.35 81.7355 0 
1253 1 43.56 79.6397 0 
1254 1 44.77 81.7355 0 
1255 1 45.98 79.6397 0 
1256 1 47.19 81.7355 0 
1257 1 48.4 79.6397 0 
1258 1 49.61 81.7355 0 
1259 1 50.82 79.6397 0 
1260 1 52.03 81.7355 0 
1261 1 53.24 79.6397 0 
1262 1 54.45 81.7355 0 
1263 1 55.66 79.6397 0 
1264 1 56.87 81.7355 0 
1265 1 58.08 79.6397 0 
1266 1 59.29 81.7355 0 
1267 1 60.5 79.6397 0 
1268 1 61.71 81.7355 0 
1269 1 62.92 79.6397 0 
1270 1 64.13 81.7355 0 
1271 1 65.34 79.6397 0 
1272 1 66.55 81.7355 0 
1273 1 67.76 79.6397 0 
1274 1 68.97 81.7355 0 
1275 1 70.18 79.6397 0 
1276 1 71.39 81.7355 0 
1277 1 72.6 79.6397 0 
1278 1 73.81 81.7355 0 
1279 1 75.02 79.6397 0 
1280 1 76.23 81.7355 0 
1281 1 0 83.8313 0 
1282 1 1.21 85.927 0 
1283 1 2.42 83.8313 0 
1284 1 3.63 85.927 0 
1285 1 4.84 83.8313 0 
1286 1 6.05 85.927 0 
1287 1 7.26 83.8313 0 
1288 1 8.47 85.927 0 
1289 1 9.68 83.8313 0 
1290 1 10.89 85.927 0 
1291 1 12.1 83.8313 0 
1292 1 13.31 85.927 0 
1293 1 14.52 83.8313 0 
1294 1 15.73 85.927 0 
1295 1 16.94 83.8313 0 
1296 1 18.15 85.927 0 
1297 1 19.36 83.8313 0 
1298 1 20.57 85.927 0 
1299 1 21.78 83.8313 0 
1300 1 22.99 85.927 0 
1301 1 24.2 83.8313 0 
1302 1 25.41 85.927 0 
1303 1 26.62 83.8313 0 
1304 1 27.83 85.927 0 
1305 1 29.04 83.8313 0 
1306 1 30.25 85.927 0 
1307 1 31.46 83.8313 0 
1308 1 32.67 85.927 0 
1309 1 33.88 83.8313 0 
1310 1 35.09 85.927 0 
1311 1 36.3 83.8313 0 
1312 1 37.51 85.927 0 
1313 1 38.72 83.8313 0 
1314 1 39.93 85.927 0 
1315 1 41.14 83.8313 0 
1316 1 42.35 85.927 0 
1317 1 43.56 83.8313 0 
1318 1 44.77 85.927 0 
1319 1 45.98 83.8313 0 
1320 1 47.19 85.927 0 
1321 1 48.4 83.8313 0 
1322 1 49.61 85.927 0 
1323 1 50.82 83.8313 0 
1324 1 52.03 85.927 0 
1325 1 53.24 83.8313 0 
1326 1 54.45 85.927 0 
1327 1 55.66 83.8313 0 
1328 1 56.87 85.927 0 
1329 1 58.08 83.8313 0 
1330 1 59.29 85.927 0 
1331 1 60.5 83.8313 0 
1332 1 61.71 85.927 0 
1333 1 62.92 83.8313 0 
1334 1 64.13 85.927 0 
1335 1 65.34 83.8313 0 
1336 1 66.55 85.927 0 
1337 1 67.76 83.8313 0 
1338 1 68.97 85.927 0 
1339 1 70.18 83.8313 0 
1340 1 71.39 85.927 0 
1341 1 72.6 83.8313 0 
1342 1 73.81 85.927 0 
1343 1 75.02 83.8313 0 
1344 1 76.23 85.927 0 
1345 1 0 88.0228 0 
1346 1 1.21 90.1186 0 
1347 1 2.42 88.0228 0 
1348 1 3.63 90.1186 0 
1349 1 4.84 88.0228 0 
1350 1 6.05 90.1186 0 
1351 1 7.26 88.0228 0 
1352 1 8.47 90.1186 0 
1353 1 9.68 88.0228 0 
1354 1 10.89 90.1186 0 
1355 1 12.1 88.0228 0 
1356 1 13.31 90.1186 0 
1357 1 14.52 88.0228 0 
1358 1 15.73 90.1186 0 
1359 1 16.94 88.0228 0 
1360 1 18.15 90.1186 0 
1361 1 19.36 88.0228 0 
1362 1 20.57 90.1186 0 
1363 1 21.78 88.0228 0 
1364 1 22.99 90.1186 0 
1365 1 24.2 88.0228 0 
1366 1 25.41 90.1186 0 
1367 1 26.62 88.0228 0 
1368 1 27.83 90.1186 0 
1369 1 29.04 88.0228 0 
1370 1 30.25 90.1186 0 
1371 1 31.46 88.0228 0 
1372 1 32.67 90.1186 0 
1373 1 33.88 88.0228 0 
1374 1 35.09 90.1186 0 
1375 1 36.3 88.0228 0 
1376 1 37.51 90.1186 0 
1377 1 38.72 88.0228 0 
1378 1 39.93 90.1186 0 
1379 1 41.14 88.0228 0 
1380 1 42.35 90.1186 0 
1381 1 43.56 88.0228 0 
1382 1 44.77 90.1186 0 
1383 1 45.98 88.0228 0 
1384 1 47.19 90.1186 0 
1385 1 48.4 88.0228 0 
1386 1 49.61 90.1186 0 
1387 1 50.82 88.0228 0 
1388 1 52.03 90.1186 0 
1389 1 53.24 88.0228 0 
1390 1 54.45 90.1186 0 
1391 1 55.66 88.0228 0 
1392 1 56.87 90.1186 0 
1393 1 58.08 88.0228 0 
1394 1 59.29 90.1186 0 
1395 1 60.5 88.0228 0 
1396 1 61.71 90.1186 0 
1397 1 62.92 88.0228 0 
1398 1 64.13 90.1186 0 
1399 1 65.34 88.0228 0 
1400 1 66.55 90.1186 0 
1401 1 67.76 88.0228 0 
1402 1 68.97 90.1186 0 
1403 1 70.18 88.0228 0 
1404 1 71.39 90.1186 0 
1405 1 72.6 88.0228 0 
1406 1 73.81 90.1186 0 
1407 1 75.02 88.0228 0 
1408 1 76.23 90.1186 0 
1409 1 0 92.2144 0 
1410 1 1.21 94.3102 0 
1411 1 2.42 92.2144 0 
1412 1 3.63 94.3102 0 
1413 1 4.84 92.2144 0 
1414 1 6.05 94.3102 0 
1415 1 7.26 92.2144 0 
1416 1 8.47 94.3102 0 
1417 1 9.68 92.2144 0 
1418 1 10.89 94.3102 0 
1419 1 12.1 92.2144 0 
1420 1 13.31 94.3102 0 
1421 1 14.52 92.2144 0 
1422 1 15.73 94.3102 0 
1423 1 16.94 92.2144 0 
1424 1 18.15 94.3102 0 
1425 1 19.36 92.2144 0 
1426 1 20.57 94.3102 0 
1427 1 21.78 92.2144 0 
1428 1 22.99 94.3102 0 
1429 1 24.2 92.2144 0 
1430 1 25.41 94.3102 0 
1431 1 26.62 92.2144 0 
1432 1 27.83 94.3102 0 
1433 1 29.04 92.2144 0 
1434 1 30.25 94.3102 0 
1435 1 31.46 92.2144 0 
1436 1 32.67 94.3102 0 
1437 1 33.88 92.2144 0 
1438 1 35.09 94.3102 0 
1439 1 36.3 92.2144 0 
1440 1 37.51 94.3102 0 
1441 1 38.72 92.2144 0 
1442 1 39.93 94.3102 0 
1443 1 41.14 92.2144 0 
1444 1 42.35 94.3102 0 
1445 1 43.56 92.2144 0 
1446 1 44.77 94.3102 0 
1447 1 45.98 92.2144 0 
1448 1 47.19 94.3102 0 
1449 1 48.4 92.2144 0 
1450 1 49.61 94.3102 0 
1451 1 50.82 92.2144 0 
1452 1 52.03 94.3102 0 
1453 1 53.24 92.2144 0 
1454 1 54.45 94.3102 0 
1455 1 55.66 92.2144 0 
1456 1 56.87 94.3102 0 
1457 1 58.08 92.2144 0 
1458 1 59.29 94.3102 0 
1459 1 60.5 92.2144 0 
1460 1 61.71 94.3102 0 
1461 1 62.92 92.2144 0 
1462 1 64.13 94.3102 0 
1463 1 65.34 92.2144 0 
1464 1 66.55 94.3102 0 
1465 1 67.76 92.2144 0 
1466 1 68.97 94.3102 0 
1467 1 70.18 92.2144 0 
1468 1 71.39 94.3102 0 
1469 1 72.6 92.2144 0 
1470 1 73.81 94.3102 0 
1471 1 75.02 92.2144 0 
1472 1 76.23 94.3102 0 
1473 3 0 96.4059 0 
1474 3 1.21 98.5017 0 
1475 3 2.42 96.4059 0 
1476 3 3.63 98.5017 0 
1477 3 4.84 96.4059 0 
1478 3 6.05 98.5017 0 
1479 3 7.26 96.4059 0 
1480 3 8.47 98.5017 0 
1481 3 9.68 96.4059 0 
1482 3 10.89 98.5017 0 
1483 3 12.1 96.4059 0 
1484 3 13.31 98.5017 0 
1485 3 14.52 96.4059 0 
1486 3 15.73 98.5017 0 
1487 3 16.94 96.4059 0 
1488 3 18.15 98.5017 0 
1489 3 19.36 96.4059 0 
1490 3 20.57 98.5017 0 
1491 3 21.78 96.4059 0 
1492 3 22.99 98.5017 0 
1493 3 24.2 96.4059 0 
1494 3 25.41 98.5017 0 
1495 3 26.62 96.4059 0 
1496 3 27.83 98.5017 0 
1497 3 29.04 96.4059 0 
1498 3 30.25 98.5017 0 
1499 3 31.46 96.4059 0 
1500 3 32.67 98.5017 0 
1501 3 33.88 96.4059 0 
1502 3 35.09 98.5017 0 
1503 3 36.3 96.4059 0 
1504 3 37.51 98.5017 0 
1505 3 38.72 96.4059 0 
1506 3 39.93 98.5017 0 
1507 3 41.14 96.4059 0 
1508 3 42.35 98.5017 0 
1509 3 43.56 96.4059 0 
1510 3 44.77 98.5017 0 
1511 3 45.98 96.4059 0 
1512 3 47.19 98.5017 0 
1513 3 48.4 96.4059 0 
1514 3 49.61 98.5017 0 
1515 3 50.82 96.4059 0 
1516 3 52.03 98.5017 0 
1517 3 53.24 96.4059 0 
1518 3 54.45 98.5017 0 
1519 3 55.66 96.4059 0 
1520 3 56.87 98.5017 0 
1521 3 58.08 96.4059 0 
1522 3 59.29 98.5017 0 
1523 3 60.5 96.4059 0 
1524 3 61.71 98.5017 0 
1525 3 62.92 96.4059 0 
1526 3 64.13 98.5017 0 
1527 3 65.34 96.4059 0 
1528 3 66.55 98.5017 0 
1529 3 67.76 96.4059 0 
1530 3 68.97 98.5017 0 
1531 3 70.18 96.4059 0 
1532 3 71.39 98.5017 0 
1533 3 72.6 96.4059 0 
1534 3 73.81 98.5017 0 
1535 3 75.02 96.4059 0 
1536 3 76.23 98.5017 0 
ITEM: TIMESTEP
7 1.40142e+11
ITEM: NUMBER OF ATOMS
1536
ITEM: BOX BOUNDS
0 77.44
0 100.598
-1.21 1.21
ITEM: ATOMS id type x y z
1 2 0 0 0 
2 2 1.21 2.09578 0 
3 2 2.42 0 0 
4 2 3.63 2.09578 0 
5 2 4.84 0 0 
6 2 6.05 2.09578 0 
7 2 7.26 0 0 
8 2 8.47 2.09578 0 
9 2 9.68 0 0 
10 2 10.89 2.09578 0 
11 2 12.1 0 0 
12 2 13.31 2.09578 0 
13 2 14.52 0 0 
14 2 15.73 2.09578 0 
15 2 16.94 0 0 
16 2 18.15 2.09578 0 
17 2 19.36 0 0 
18 2 20.57 2.09578 0 
19 2 21.78 0 0 
20 2 22.99 2.09578 0 
21 2 24.2 0 0 
22 2 25.41 2.09578 0 
23 2 26.62 0 0 
24 2 27.83 2.09578 0 
25 2 29.04 0 0 
26 2 30.25 2.09578 0 
27 2 31.46 0 0 
28 2 32.67 2.09578 0 
29 2 33.88 0 0 
30 2 35.09 2.09578 0 
31 2 36.3 0 0 
32 2 37.51 2.09578 0 
33 2 38.72 0 0 
34 2 39.93 2.09578 0 
35 2 41.14 0 0 
36 2 42.35 2.09578 0 
37 2 43.56 0 0 
38 2 44.77 2.09578 0 
39 2 45.98 0 0 
40 2 47.19 2.09578 0 
41 2 48.4 0 0 
42 2 49.61 2.09578 0 
43 2 50.82 0 0 
44 2 52.03 2.09578 0 
45 2 53.24 0 0 
46 2 54.45 2.09578 0 
47 2 55.66 0 0 
48 2 56.87 2.09578 0 
49 2 58.08 0 0 
50 2 59.29 2.09578 0 
51 2 60.5 0 0 
52 2 61.71 2.09578 0 
53 2 62.92 0 0 
54 2 64.13 2.09578 0 
55 2 65.34 0 0 
56 2 66.55 2.09578 0 
57 2 67.76 0 0 
58 2 68.97 2.09578 0 
59 2 70.18 0 0 
60 2 71.39 2.09578 0 
61 2 72.6 0 0 
62 2 73.81 2.09578 0 
63 2 75.02 0 0 
64 2 76.23 2.09578 0 
65 2 0 4.19156 0 
66 2 1.21 6.28734 0 
67 2 2.42 4.19156 0 
68 2 3.63 6.28734 0 
69 2 4.84 4.19156 0 
70 2 6.05 6.28734 0 
71 2 7.26 4.19156 0 
72 2 8.47 6.28734 0 
73 2 9.68 4.19156 0 
74 2 10.89 6.28734 0 
75 2 12.1 4.19156 0 
76 2 13.31 6.28734 0 
77 2 14.52 4.19156 0 
78 2 15.73 6.28734 0 
79 2 16.94 4.19156 0 
80 2 18.15 6.28734 0 
81 2 19.36 4.19156 0 
82 2 20.57 6.28734 0 
83 2 21.78 4.19156 0 
84 2 22.99 6.28734 0 
85 2 24.2 4.19156 0 
86 2 25.41 6.28734 0 
87 2 26.62 4.19156 0 
88 2 27.83 6.28734 0 
89 2 29.04 4.19156 0 
90 2 30.25 6.28734 0 
91 2 31.46 4.19156 0 
92 2 32.67 6.28734 0 
93 2 33.88 4.19156 0 
94 2 35.09 6.28734 0 
95 2 36.3 4.19156 0 
96 2 37.51 6.28734 0 
97 2 38.72 4.19156 0 
98 2 39.93 6.28734 0 
99 2 41.14 4.19156 0 
100 2 42.35 6.28734 0 
101 2 43.56 4.19156 0 
102 2 44.77 6.28734 0 
103 2 45.98 4.19156 0 
104 2 47.19 6.28734 0 
105 2 48.4 4.19156 0 
106 2 49.61 6.28734 0 
107 2 50.82 4.19156 0 
108 2 52.03 6.28734 0 
109 2 53.24 4.19156 0 
110 2 54.45 6.28734 0 
111 2 55.66 4.19156 0 
112 2 56.87 6.28734 0 
113 2 58.08 4.19156 0 
114 2 59.29 6.28734 0 
115 2 60.5 4.19156 0 
116 2 61.71 6.28734 0 
117 2 62.92 4.19156 0 
118 1 64.13 6.28734 0 
119 2 65.34 4.19156 0 
120 2 66.55 6.28734 0 
121 2 67.76 4.19156 0 
122 2 68.97 6.28734 0 
123 2 70.18 4.19156 0 
124 2 71.39 6.28734 0 
125 2 72.6 4.19156 0 
126 2 73.81 6.28734 0 
127 2 75.02 4.19156 0 
128 2 76.23 6.28734 0 
129 2 0 8.38313 0 
130 2 1.21 10.4789 0 
131 2 2.42 8.38313 0 
132 1 3.63 10.4789 0 
133 2 4.84 8.38313 0 
134 2 6.05 10.4789 0 
135 2 7.26 8.38313 0 
136 2 8.47 10.4789 0 
137 2 9.68 8.38313 0 
138 2 10.89 10.4789 0 
139 2 12.1 8.38313 0 
140 2 13.31 10.4789 0 
141 2 14.52 8.38313 0 
142 2 15.73 10.4789 0 
143 2 16.94 8.38313 0 
144 2 18.15 10.4789 0 
145 2 19.36 8.38313 0 
146 2 20.57 10.4789 0 
147 2 21.78 8.38313 0 
148 2 22.99 10.4789 0 
149 2 24.2 8.38313 0 
150 2 25.41 10.4789 0 
151 2 26.62 8.38313 0 
152 2 27.83 10.4789 0 
153 2 29.04 8.38313 0 
154 2 30.25 10.4789 0 
155 2 31.46 8.38313 0 
156 2 32.67 10.4789 0 
157 2 33.88 8.38313 0 
158 2 35.09 10.4789 0 
159 2 36.3 8.38313 0 
160 2 37.51 10.4789 0 
161 2 38.72 8.38313 0 
162 2 39.93 10.4789 0 
163 2 41.14 8.38313 0 
164 2 42.35 10.4789 0 
165 2 43.56 8.38313 0 
166 2 44.77 10.4789 0 
167 2 45.98 8.38313 0 
168 2 47.19 10.4789 0 
169 2 48.4 8.38313 0 
170 2 49.61 10.4789 0 
171 2 50.82 8.38313 0 
172 2 52.03 10.4789 0 
173 2 53.24 8.38313 0 
174 2 54.45 10.4789 0 
175 2 55.66 8.38313 0 
176 2 56.87 10.4789 0 
177 2 58.08 8.38313 0 
178 2 59.29 10.4789 0 
179 2 60.5 8.38313 0 
180 2 61.71 10.4789 0 
181 1 62.92 8.38313 0 
182 2 64.13 10.4789 0 
183 2 65.34 8.38313 0 
184 2 66.55 10.4789 0 
185 2 67.76 8.38313 0 
186 2 68.97 10.4789 0 
187 2 70.18 8.38313 0 
188 2 71.39 10.4789 0 
189 2 72.6 8.38313 0 
190 2 73.81 10.4789 0 
191 2 75.02 8.38313 0 
192 2 76.23 10.4789 0 
193 2 0 12.5747 0 
194 2 1.21 14.6705 0 
195 2 2.42 12.5747 0 
196 2 3.63 14.6705 0 
197 1 4.84 12.5747 0 
198 1 6.05 14.6705 0 
199 2 7.26 12.5747 0 
200 2 8.47 14.6705 0 
201 2 9.68 12.5747 0 
202 2 10.89 14.6705 0 
203 2 12.1 12.5747 0 
204 2 13.31 14.6705 0 
205 2 14.52 12.5747 0 
206 2 15.73 14.6705 0 
207 2 16.94 12.5747 0 
208 2 18.15 14.6705 0 
209 2 19.36 12.5747 0 
210 2 20.57 14.6705 0 
211 2 21.78 12.5747 0 
212 2 22.99 14.6705 0 
213 2 24.2 12.5747 0 
214 2 25.41 14.6705 0 
215 2 26.62 12.5747 0 
216 2 27.83 14.6705 0 
217 2 29.04 12.5747 0 
218 2 30.25 14.6705 0 
219 2 31.46 12.5747 0 
220 2 32.67 14.6705 0 
221 2 33.88 12.5747 0 
222 2 35.09 14.6705 0 
223 2 36.3 12.5747 0 
224 2 37.51 14.6705 0 
225 2 38.72 12.5747 0 
226 2 39.93 14.6705 0 
227 2 41.14 12.5747 0 
228 2 42.35 14.6705 0 
229 2 43.56 12.5747 0 
230 2 44.77 14.6705 0 
231 2 45.98 12.5747 0 
232 2 47.19 14.6705 0 
233 2 48.4 12.5747 0 
234 2 49.61 14.6705 0 
235 2 50.82 12.5747 0 
236 2 52.03 14.6705 0 
237 2 53.24 12.5747 0 
238 2 54.45 14.6705 0 
239 2 55.66 12.5747 0 
240 2 56.87 14.6705 0 
241 2 58.08 12.5747 0 
242 1 59.29 14.6705 0 
243 2 60.5 12.5747 0 
244 1 61.71 14.6705 0 
245 1 62.92 12.5747 0 
246 1 64.13 14.6705 0 
247 2 65.34 12.5747 0 
248 2 66.55 14.6705 0 
249 2 67.76 12.5747 0 
250 2 68.97 14.6705 0 
251 2 70.18 12.5747 0 
252 2 71.39 14.6705 0 
253 2 72.6 12.5747 0 
254 2 73.81 14.6705 0 
255 2 75.02 12.5747 0 
256 2 76.23 14.6705 0 
257 2 0 16.7663 0 
258 2 1.21 18.862 0 
259 2 2.42 16.7663 0 
260 2 3.63 18.862 0 
261 1 4.84 16.7663 0 
262 1 6.05 18.862 0 
263 1 7.26 16.7663 0 
264 1 8.47 18.862 0 
265 1 9.68 16.7663 0 
266 1 10.89 18.862 0 
267 2 12.1 16.7663 0 
268 1 13.31 18.862 0 
269 2 14.52 16.7663 0 
270 2 15.73 18.862 0 
271 2 16.94 16.7663 0 
272 2 18.15 18.862 0 
273 2 19.36 16.7663 0 
274 2 20.57 18.862 0 
275 2 21.78 16.7663 0 
276 2 22.99 18.862 0 
277 2 24.2 16.7663 0 
278 2 25.41 18.862 0 
279 2 26.62 16.7663 0 
280 2 27.83 18.862 0 
281 2 29.04 16.7663 0 
282 2 30.25 18.862 0 
283 2 31.46 16.7663 0 
284 2 32.67 18.862 0 
285 2 33.88 16.7663 0 
286 2 35.09 18.862 0 
287 2 36.3 16.7663 0 
288 2 37.51 18.862 0 
289 2 38.72 16.7663 0 
290 2 39.93 18.862 0 
291 2 41.14 16.7663 0 
292 2 42.35 18.862 0 
293 2 43.56 16.7663 0 
294 2 44.77 18.862 0 
295 2 45.98 16.7663 0 
296 2 47.19 18.862 0 
297 2 48.4 16.7663 0 
298 1 49.61 18.862 0 
299 1 50.82 16.7663 0 
300 1 52.03 18.862 0 
301 1 53.24 16.7663 0 
302 1 54.45 18.862 0 
303 1 55.66 16.7663 0 
304 1 56.87 18.862 0 
305 1 58.08 16.7663 0 
306 1 59.29 18.862 0 
307 1 60.5 16.7663 0 
308 1 61.71 18.862 0 
309 1 62.92 16.7663 0 
310 1 64.13 18.862 0 
311 2 65.34 16.7663 0 
312 2 66.55 18.862 0 
313 2 67.76 16.7663 0 
314 2 68.97 18.862 0 
315 2 70.18 16.7663 0 
316 2 71.39 18.862 0 
317 2 72.6 16.7663 0 
318 2 73.81 18.862 0 
319 2 75.02 16.7663 0 
320 2 76.23 18.862 0 
321 2 0 20.9578 0 
322 2 1.21 23.0536 0 
323 2 2.42 20.9578 0 
324 2 3.63 23.0536 0 
325 2 4.84 20.9578 0 
326 1 6.05 23.0536 0 
327 1 7.26 20.9578 0 
328 1 8.47 23.0536 0 
329 1 9.68 20.9578 0 
330 1 10.89 23.0536 0 
331 1 12.1 20.9578 0 
332 1 13.31 23.0536 0 
333 1 14.52 20.9578 0 
334 1 15.73 23.0536 0 
335 2 16.94 20.9578 0 
336 1 18.15 23.0536 0 
337 2 19.36 20.9578 0 
338 2 20.57 23.0536 0 
339 2 21.78 20.9578 0 
340 2 22.99 23.0536 0 
341 2 24.2 20.9578 0 
342 2 25.41 23.0536 0 
343 2 26.62 20.9578 0 
344 2 27.83 23.0536 0 
345 2 29.04 20.9578 0 
346 2 30.25 23.0536 0 
347 2 31.46 20.9578 0 
348 2 32.67 23.0536 0 
349 2 33.88 20.9578 0 
350 2 35.09 23.0536 0 
351 2 36.3 20.9578 0 
352 1 37.51 23.0536 0 
353 2 38.72 20.9578 0 
354 1 39.93 23.0536 0 
355 2 41.14 20.9578 0 
356 2 42.35 23.0536 0 
357 2 43.56 20.9578 0 
358 2 44.77 23.0536 0 
359 2 45.98 20.9578 0 
360 2 47.19 23.0536 0 
361 2 48.4 20.9578 0 
362 2 49.61 23.0536 0 
363 1 50.82 20.9578 0 
364 1 52.03 23.0536 0 
365 1 53.24 20.9578 0 
366 1 54.45 23.0536 0 
367 1 55.66 20.9578 0 
368 1 56.87 23.0536 0 
369 1 58.08 20.9578 0 
370 1 59.29 23.0536 0 
371 1 60.5 20.9578 0 
372 1 61.71 23.0536 0 
373 1 62.92 20.9578 0 
374 1 64.13 23.0536 0 
375 1 65.34 20.9578 0 
376 1 66.55 23.0536 0 
377 2 67.76 20.9578 0 
378 2 68.97 23.0536 0 
379 2 70.18 20.9578 0 
380 2 71.39 23.0536 0 
381 2 72.6 20.9578 0 
382 2 73.81 23.0536 0 
383 2 75.02 20.9578 0 
384 2 76.23 23.0536 0 
385 2 0 25.1494 0 
386 2 1.21 27.2452 0 
387 2 2.42 25.1494 0 
388 2 3.63 27.2452 0 
389 2 4.84 25.1494 0 
390 1 6.05 27.2452 0 
391 1 7.26 25.1494 0 
392 1 8.47 27.2452 0 
393 1 9.68 25.1494 0 
394 1 10.89 27.2452 0 
395 1 12.1 25.1494 0 
396 1 13.31 27.2452 0 
397 1 14.52 25.1494 0 
398 1 15.73 27.2452 0 
399 1 16.94 25.1494 0 
400 1 18.15 27.2452 0 
401 1 19.36 25.1494 0 
402 1 20.57 27.2452 0 
403 2 21.78 25.1494 0 
404 2 22.99 27.2452 0 
405 2 24.2 25.1494 0 
406 2 25.41 27.2452 0 
407 2 26.62 25.1494 0 
408 2 27.83 27.2452 0 
409 2 29.04 25.1494 0 
410 1 30.25 27.2452 0 
411 2 31.46 25.1494 0 
412 1 32.67 27.2452 0 
413 1 33.88 25.1494 0 
414 1 35.09 27.2452 0 
415 1 36.3 25.1494 0 
416 1 37.51 27.2452 0 
417 1 38.72 25.1494 0 
418 1 39.93 27.2452 0 
419 1 41.14 25.1494 0 
420 2 42.35 27.2452 0 
421 2 43.56 25.1494 0 
422 2 44.77 27.2452 0 
423 2 45.98 25.1494 0 
424 2 47.19 27.2452 0 
425 2 48.4 25.1494 0 
426 2 49.61 27.2452 0 
427 2 50.82 25.1494 0 
428 1 52.03 27.2452 0 
429 1 53.24 25.1494 0 
430 1 54.45 27.2452 0 
431 1 55.66 25.1494 0 
432 1 56.87 27.2452 0 
433 1 58.08 25.1494 0 
434 1 59.29 27.2452 0 
435 1 60.5 25.1494 0 
436 1 61.71 27.2452 0 
437 1 62.92 25.1494 0 
438 1 64.13 27.2452 0 
439 1 65.34 25.1494 0 
440 1 66.55 27.2452 0 
441 1 67.76 25.1494 0 
442 1 68.97 27.2452 0 
443 1 70.18 25.1494 0 
444 1 71.39 27.2452 0 
445 2 72.6 25.1494 0 
446 2 73.81 27.2452 0 
447 2 75.02 25.1494 0 
448 2 76.23 27.2452 0 
449 2 0 29.3409 0 
450 1 1.21 31.4367 0 
451 2 2.42 29.3409 0 
452 1 3.63 31.4367 0 
453 1 4.84 29.3409 0 
454 1 6.05 31.4367 0 
455 1 7.26 29.3409 0 
456 1 8.47 31.4367 0 
457 1 9.68 29.3409 0 
458 1 10.89 31.4367 0 
459 1 12.1 29.3409 0 
460 1 13.31 31.4367 0 
461 1 14.52 29.3409 0 
462 1 15.73 31.4367 0 
463 1 16.94 29.3409 0 
464 1 18.15 31.4367 0 
465 1 19.36 29.3409 0 
466 2 20.57 31.4367 0 
467 2 21.78 29.3409 0 
468 2 22.99 31.4367 0 
469 2 24.2 29.3409 0 
470 1 25.41 31.4367 0 
471 2 26.62 29.3409 0 
472 1 27.83 31.4367 0 
473 1 29.04 29.3409 0 
474 1 30.25 31.4367 0 
475 1 31.46 29.3409 0 
476 1 32.67 31.4367 0 
477 1 33.88 29.3409 0 
478 1 35.09 31.4367 0 
479 1 36.3 29.3409 0 
480 1 37.51 31.4367 0 
481 1 38.72 29.3409 0 
482 1 39.93 31.4367 0 
483 1 41.14 29.3409 0 
484 1 42.35 31.4367 0 
485 2 43.56 29.3409 0 
486 1 44.77 31.4367 0 
487 2 45.98 29.3409 0 
488 2 47.19 31.4367 0 
489 2 48.4 29.3409 0 
490 2 49.61 31.4367 0 
491 2 50.82 29.3409 0 
492 2 52.03 31.4367 0 
493 1 53.24 29.3409 0 
494 1 54.45 31.4367 0 
495 1 55.66 29.3409 0 
496 1 56.87 31.4367 0 
497 1 58.08 29.3409 0 
498 1 59.29 31.4367 0 
499 1 60.5 29.3409 0 
500 1 61.71 31.4367 0 
501 1 62.92 29.3409 0 
502 1 64.13 31.4367 0 
503 1 65.34 29.3409 0 
504 1 66.55 31.4367 0 
505 1 67.76 29.3409 0 
506 1 68.97 31.4367 0 
507 1 70.18 29.3409 0 
508 1 71.39 31.4367 0 
509 1 72.6 29.3409 0 
510 1 73.81 31.4367 0 
511 2 75.02 29.3409 0 
512 1 76.23 31.4367 0 
513 1 0 33.5325 0 
514 1 1.21 35.6283 0 
515 1 2.42 33.5325 0 
516 1 3.63 35.6283 0 
517 1 4.84 33.5325 0 
518 1 6.05 35.6283 0 
519 1 7.26 33.5325 0 
520 1 8.47 35.6283 0 
521 1 9.68 33.5325 0 
522 1 10.89 35.6283 0 
523 1 12.1 33.5325 0 
524 1 13.31 35.6283 0 
525 1 14.52 33.5325 0 
526 1 15.73 35.6283 0 
527 1 16.94 33.5325 0 
528 1 18.15 35.6283 0 
529 1 19.36 33.5325 0 
530 1 20.57 35.6283 0 
531 1 21.78 33.5325 0 
532 1 22.99 35.6283 0 
533 1 24.2 33.5325 0 
534 1 25.41 35.6283 0 
535 1 26.62 33.5325 0 
536 1 27.83 35.6283 0 
537 1 29.04 33.5325 0 
538 1 30.25 35.6283 0 
539 1 31.46 33.5325 0 
540 1 32.67 35.6283 0 
541 1 33.88 33.5325 0 
542 1 35.09 35.6283 0 
543 1 36.3 33.5325 0 
544 1 37.51 35.6283 0 
545 1 38.72 33.5325 0 
546 1 39.93 35.6283 0 
547 1 41.14 33.5325 0 
548 1 42.35 35.6283 0 
549 1 43.56 33.5325 0 
550 1 44.77 35.6283 0 
551 1 45.98 33.5325 0 
552 1 47.19 35.6283 0 
553 1 48.4 33.5325 0 
554 1 49.61 35.6283 0 
555 2 50.82 33.5325 0 
556 1 52.03 35.6283 0 
557 1 53.24 33.5325 0 
558 1 54.45 35.6283 0 
559 1 55.66 33.5325 0 
560 1 56.87 35.6283 0 
561 1 58.08 33.5325 0 
562 1 59.29 35.6283 0 
563 1 60.5 33.5325 0 
564 1 61.71 35.6283 0 
565 1 62.92 33.5325 0 
566 1 64.13 35.6283 0 
567 1 65.34 33.5325 0 
568 1 66.55 35.6283 0 
569 1 67.76 33.5325 0 
570 1 68.97 35.6283 0 
571 1 70.18 33.5325 0 
572 1 71.39 35.6283 0 
573 1 72.6 33.5325 0 
574 1 73.81 35.6283 0 
575 1 75.02 33.5325 0 
576 1 76.23 35.6283 0 
577 1 0 37.7241 0 
578 1 1.21 39.8198 0 
579 1 2.42 37.7241 0 
580 1 3.63 39.8198 0 
581 1 4.84 37.7241 0 
582 1 6.05 39.8198 0 
583 1 7.26 37.7241 0 
584 1 8.47 39.8198 0 
585 1 9.68 37.7241 0 
586 1 10.89 39.8198 0 
587 1 12.1 37.7241 0 
588 1 13.31 39.8198 0 
589 1 14.52 37.7241 0 
590 1 15.73 39.8198 0 
591 1 16.94 37.7241 0 
592 1 18.15 39.8198 0 
593 1 19.36 37.7241 0 
594 1 20.57 39.8198 0 
595 1 21.78 37.7241 0 
596 1 22.99 39.8198 0 
597 1 24.2 37.7241 0 
598 1 25.41 39.8198 0 
599 1 26.62 37.7241 0 
600 1 27.83 39.8198 0 
601 1 29.04 37.7241 0 
602 1 30.25 39.8198 0 
603 1 31.46 37.7241 0 
604 1 32.67 39.8198 0 
605 1 33.88 37.7241 0 
606 1 35.09 39.8198 0 
607 1 36.3 37.7241 0 
608 1 37.51 39.8198 0 
609 1 38.72 37.7241 0 
610 1 39.93 39.8198 0 
611 1 41.14 37.7241 0 
612 1 42.35 39.8198 0 
613 1 43.56 37.7241 0 
614 1 44.77 39.8198 0 
615 1 45.98 37.7241 0 
616 1 47.19 39.8198 0 
617 1 48.4 37.7241 0 
618 1 49.61 39.8198 0 
619 1 50.82 37.7241 0 
620 1 52.03 39.8198 0 
621 1 53.24 37.7241 0 
622 1 54.45 39.8198 0 
623 1 55.66 37.7241 0 
624 1 56.87 39.8198 0 
625 1 58.08 37.7241 0 
626 1 59.29 39.8198 0 
627 1 60.5 37.7241 0 
628 1 61.71 39.8198 0 
629 1 62.92 37.7241 0 
630 1 64.13 39.8198 0 
631 1 65.34 37.7241 0 
632 1 66.55 39.8198 0 
633 1 67.76 37.7241 0 
634 1 68.97 39.8198 0 
635 1 70.18 37.7241 0 
636 1 71.39 39.8198 0 
637 1 72.6 37.7241 0 
638 1 73.81 39.8198 0 
639 1 75.02 37.7241 0 
640 1 76.23 39.8198 0 
641 1 0 41.9156 0 
642 1 1.21 44.0114 0 
643 1 2.42 41.9156 0 
644 1 3.63 44.0114 0 
645 1 4.84 41.9156 0 
646 1 6.05 44.0114 0 
647 1 7.26 41.9156 0 
648 1 8.47 44.0114 0 
649 1 9.68 41.9156 0 
650 1 10.89 44.0114 0 
651 1 12.1 41.9156 0 
652 1 13.31 44.0114 0 
653 1 14.52 41.9156 0 
654 1 15.73 44.0114 0 
655 1 16.94 41.9156 0 
656 1 18.15 44.0114 0 
657 1 19.36 41.9156 0 
658 1 20.57 44.0114 0 
659 1 21.78 41.9156 0 
660 1 22.99 44.0114 0 
661 1 24.2 41.9156 0 
662 1 25.41 44.0114 0 
663 1 26.62 41.9156 0 
664 1 27.83 44.0114 0 
665 1 29.04 41.9156 0 
666 1 30.25 44.0114 0 
667 1 31.46 41.9156 0 
668 1 32.67 44.0114 0 
669 1 33.88 41.9156 0 
670 1 35.09 44.0114 0 
671 1 36.3 41.9156 0 
672 1 37.51 44.0114 0 
673 1 38.72 41.9156 0 
674 1 39.93 44.0114 0 
675 1 41.14 41.9156 0 
676 1 42.35 44.0114 0 
677 1 43.56 41.9156 0 
678 1 44.77 44.0114 0 
679 1 45.98 41.9156 0 
680 1 47.19 44.0114 0 
681 1 48.4 41.9156 0 
682 1 49.61 44.0114 0 
683 1 50.82 41.9156 0 
684 1 52.03 44.0114 0 
685 1 53.24 41.9156 0 
686 1 54.45 44.0114 0 
687 1 55.66 41.9156 0 
688 1 56.87 44.0114 0 
689 1 58.08 41.9156 0 
690 1 59.29 44.0114 0 
691 1 60.5 41.9156 0 
692 1 61.71 44.0114 0 
693 1 62.92 41.9156 0 
694 1 64.13 44.0114 0 
695 1 65.34 41.9156 0 
696 1 66.55 44.0114 0 
697 1 67.76 41.9156 0 
698 1 68.97 44.0114 0 
699 1 70.18 41.9156 0 
700 1 71.39 44.0114 0 
701 1 72.6 41.9156 0 
702 1 73.81 44.0114 0 
703 1 75.02 41.9156 0 
704 1 76.23 44.0114 0 
705 1 0 46.1072 0 
706 1 1.21 48.203 0 
707 1 2.42 46.1072 0 
708 1 3.63 48.203 0 
709 1 4.84 46.1072 0 
710 1 6.05 48.203 0 
711 1 7.26 46.1072 0 
712 1 8.47 48.203 0 
713 1 9.68 46.1072 0 
714 1 10.89 48.203 0 
715 1 12.1 46.1072 0 
716 1 13.31 48.203 0 
717 1 14.52 46.1072 0 
718 1 15.73 48.203 0 
719 1 16.94 46.1072 0 
720 1 18.15 48.203 0 
721 1 19.36 46.1072 0 
722 1 20.57 48.203 0 
723 1 21.78 46.1072 0 
724 1 22.99 48.203 0 
725 1 24.2 46.1072 0 
726 1 25.41 48.203 0 
727 1 26.62 46.1072 0 
728 1 27.83 48.203 0 
729 1 29.04 46.1072 0 
730 1 30.25 48.203 0 
731 1 31.46 46.1072 0 
732 1 32.67 48.203 0 
733 1 33.88 46.1072 0 
734 1 35.09 48.203 0 
735 1 36.3 46.1072 0 
736 1 37.51 48.203 0 
737 1 38.72 46.1072 0 
738 1 39.93 48.203 0 
739 1 41.14 46.1072 0 
740 1 42.35 48.203 0 
741 1 43.56 46.1072 0 
742 1 44.77 48.203 0 
743 1 45.98 46.1072 0 
744 1 47.19 48.203 0 
745 1 48.4 46.1072 0 
746 1 49.61 48.203 0 
747 1 50.82 46.1072 0 
748 1 52.03 48.203 0 
749 1 53.24 46.1072 0 
750 1 54.45 48.203 0 
751 1 55.66 46.1072 0 
752 1 56.87 48.203 0 
753 1 58.08 46.1072 0 
754 1 59.29 48.203 0 
755 1 60.5 46.1072 0 
756 1 61.71 48.203 0 
757 1 62.92 46.1072 0 
758 1 64.13 48.203 0 
759 1 65.34 46.1072 0 
760 1 66.55 48.203 0 
761 1 67.76 46.1072 0 
762 1 68.97 48.203 0 
763 1 70.18 46.1072 0 
764 1 71.39 48.203 0 
765 1 72.6 46.1072 0 
766 1 73.81 48.203 0 
767 1 75.02 46.1072 0 
768 1 76.23 48.203 0 
769 1 0 50.2988 0 
770 1 1.21 52.3945 0 
771 1 2.42 50.2988 0 
772 1 3.63 52.3945 0 
773 1 4.84 50.2988 0 
774 1 6.05 52.3945 0 
775 1 7.26 50.2988 0 
776 1 8.47 52.3945 0 
777 1 9.68 50.2988 0 
778 1 10.89 52.3945 0 
779 1 12.1 50.2988 0 
780 1 13.31 52.3945 0 
781 1 14.52 50.2988 0 
782 1 15.73 52.3945 0 
783 1 16.94 50.2988 0 
784 1 18.15 52.3945 0 
785 1 19.36 50.2988 0 
786 1 20.57 52.3945 0 
787 1 21.78 50.2988 0 
788 1 22.99 52.3945 0 
789 1 24.2 50.2988 0 
790 1 25.41 52.3945 0 
791 1 26.62 50.2988 0 
792 1 27.83 52.3945 0 
793 1 29.04 50.2988 0 
794 1 30.25 52.3945 0 
795 1 31.46 50.2988 0 
796 1 32.67 52.3945 0 
797 1 33.88 50.2988 0 
798 1 35.09 52.3945 0 
799 1 36.3 50.2988 0 
800 1 37.51 52.3945 0 
801 1 38.72 50.2988 0 
802 1 39.93 52.3945 0 
803 1 41.14 50.2988 0 
804 1 42.35 52.3945 0 
805 1 43.56 50.2988 0 
806 1 44.77 52.3945 0 
807 1 45.98 50.2988 0 
808 1 47.19 52.3945 0 
809 1 48.4 50.2988 0 
810 1 49.61 52.3945 0 
811 1 50.82 50.2988 0 
812 1 52.03 52.3945 0 
813 1 53.24 50.2988 0 
814 1 54.45 52.3945 0 
815 1 55.66 50.2988 0 
816 1 56.87 52.3945 0 
817 1 58.08 50.2988 0 
818 1 59.29 52.3945 0 
819 1 60.5 50.2988 0 
820 1 61.71 52.3945 0 
821 1 62.92 50.2988 0 
822 1 64.13 52.3945 0 
823 1 65.34 50.2988 0 
824 1 66.55 52.3945 0 
825 1 67.76 50.2988 0 
826 1 68.97 52.3945 0 
827 1 70.18 50.2988 0 
828 1 71.39 52.3945 0 
829 1 72.6 50.2988 0 
830 1 73.81 52.3945 0 
831 1 75.02 50.2988 0 
832 1 76.23 52.3945 0 
833 1 0 54.4903 0 
834 1 1.21 56.5861 0 
835 1 2.42 54.4903 0 
836 1 3.63 56.5861 0 
837 1 4.84 54.4903 0 
838 1 6.05 56.5861 0 
839 1 7.26 54.4903 0 
840 1 8.47 56.5861 0 
841 1 9.68 54.4903 0 
842 1 10.89 56.5861 0 
843 1 12.1 54.4903 0 
844 1 13.31 56.5861 0 
845 1 14.52 54.4903 0 
846 1 15.73 56.5861 0 
847 1 16.94 54.4903 0 
848 1 18.15 56.5861 0 
849 1 19.36 54.4903 0 
850 1 20.57 56.5861 0 
851 1 21.78 54.4903 0 
852 1 22.99 56.5861 0 
853 1 24.2 54.4903 0 
854 1 25.41 56.5861 0 
855 1 26.62 54.4903 0 
856 1 27.83 56.5861 0 
857 1 29.04 54.4903 0 
858 1 30.25 56.5861 0 
859 1 31.46 54.4903 0 
860 1 32.67 56.5861 0 
861 1 33.88 54.4903 0 
862 1 35.09 56.5861 0 
863 1 36.3 54.4903 0 
864 1 37.51 56.5861 0 
865 1 38.72 54.4903 0 
866 1 39.93 56.5861 0 
867 1 41.14 54.4903 0 
868 1 42.35 56.5861 0 
869 1 43.56 54.4903 0 
870 1 44.77 56.5861 0 
871 1 45.98 54.4903 0 
872 1 47.19 56.5861 0 
873 1 48.4 54.4903 0 
874 1 49.61 56.5861 0 
875 1 50.82 54.4903 0 
876 1 52.03 56.5861 0 
877 1 53.24 54.4903 0 
878 1 54.45 56.5861 0 
879 1 55.66 54.4903 0 
880 1 56.87 56.5861 0 
881 1 58.08 54.4903 0 
882 1 59.29 56.5861 0 
883 1 60.5 54.4903 0 
884 1 61.71 56.5861 0 
885 1 62.92 54.4903 0 
886 1 64.13 56.5861 0 
887 1 65.34 54.4903 0 
888 1 66.55 56.5861 0 
889 1 67.76 54.4903 0 
890 1 68.97 56.5861 0 
891 1 70.18 54.4903 0 
892 1 71.39 56.5861 0 
893 1 72.6 54.4903 0 
894 1 73.81 56.5861 0 
895 1 75.02 54.4903 0 
896 1 76.23 56.5861 0 
897 1 0 58.6819 0 
898 1 1.21 60.7777 0 
899 1 2.42 58.6819 0 
900 1 3.63 60.7777 0 
901 1 4.84 58.6819 0 
902 1 6.05 60.7777 0 
903 1 7.26 58.6819 0 
904 1 8.47 60.7777 0 
905 1 9.68 58.6819 0 
906 1 10.89 60.7777 0 
907 1 12.1 58.6819 0 
908 1 13.31 60.7777 0 
909 1 14.52 58.6819 0 
910 1 15.73 60.7777 0 
911 1 16.94 58.6819 0 
912 1 18.15 60.7777 0 
913 1 19.36 58.6819 0 
914 1 20.57 60.7777 0 
915 1 21.78 58.6819 0 
916 1 22.99 60.7777 0 
917 1 24.2 58.6819 0 
918 1 25.41 60.7777 0 
919 1 26.62 58.6819 0 
920 1 27.83 60.7777 0 
921 1 29.04 58.6819 0 
922 1 30.25 60.7777 0 
923 1 31.46 58.6819 0 
924 1 32.67 60.7777 0 
925 1 33.88 58.6819 0 
926 1 35.09 60.7777 0 
927 1 36.3 58.6819 0 
928 1 37.51 60.7777 0 
929 1 38.72 58.6819 0 
930 1 39.93 60.7777 0 
931 1 41.14 58.6819 0 
932 1 42.35 60.7777 0 
933 1 43.56 58.6819 0 
934 1 44.77 60.7777 0 
935 1 45.98 58.6819 0 
936 1 47.19 60.7777 0 
937 1 48.4 58.6819 0 
938 1 49.61 60.7777 0 
939 1 50.82 58.6819 0 
940 1 52.03 60.7777 0 
941 1 53.24 58.6819 0 
942 1 54.45 60.7777 0 
943 1 55.66 58.6819 0 
944 1 56.87 60.7777 0 
945 1 58.08 58.6819 0 
946 1 59.29 60.7777 0 
947 1 60.5 58.6819 0 
948 1 61.71 60.7777 0 
949 1 62.92 58.6819 0 
950 1 64.13 60.7777 0 
951 1 65.34 58.6819 0 
952 1 66.55 60.7777 0 
953 1 67.76 58.6819 0 
954 1 68.97 60.7777 0 
955 1 70.18 58.6819 0 
956 1 71.39 60.7777 0 
957 1 72.6 58.6819 0 
958 1 73.81 60.7777 0 
959 1 75.02 58.6819 0 
960 1 76.23 60.7777 0 
961 1 0 62.8734 0 
962 1 1.21 64.9692 0 
963 1 2.42 62.8734 0 
964 1 3.63 64.9692 0 
965 1 4.84 62.8734 0 
966 1 6.05 64.9692 0 
967 1 7.26 62.8734 0 
968 1 8.47 64.9692 0 
969 1 9.68 62.8734 0 
970 1 10.89 64.9692 0 
971 1 12.1 62.8734 0 
972 1 13.31 64.9692 0 
973 1 14.52 62.8734 0 
974 1 15.73 64.9692 0 
975 1 16.94 62.8734 0 
976 1 18.15 64.9692 0 
977 1 19.36 62.8734 0 
978 1 20.57 64.9692 0 
979 1 21.78 62.8734 0 
980 1 22.99 64.9692 0 
981 1 24.2 62.8734 0 
982 1 25.41 64.9692 0 
983 1 26.62 62.8734 0 
984 1 27.83 64.9692 0 
985 1 29.04 62.8734 0 
986 1 30.25 64.9692 0 
987 1 31.46 62.8734 0 
988 1 32.67 64.9692 0 
989 1 33.88 62.8734 0 
990 1 35.09 64.9692 0 
991 1 36.3 62.8734 0 
992 1 37.51 64.9692 0 
993 1 38.72 62.8734 0 
994 1 39.93 64.9692 0 
995 1 41.14 62.8734 0 
996 1 42.35 64.9692 0 
997 1 43.56 62.8734 0 
998 1 44.77 64.9692 0 
999 1 45.98 62.8734 0 
1000 1 47.19 64.9692 0 
1001 1 48.4 62.8734 0 
1002 1 49.61 64.9692 0 
1003 1 50.82 62.8734 0 
1004 1 52.03 64.9692 0 
1005 1 53.24 62.8734 0 
1006 1 54.45 64.9692 0 
1007 1 55.66 62.8734 0 
1008 1 56.87 64.9692 0 
1009 1 58.08 62.8734 0 
1010 1 59.29 64.9692 0 
1011 1 60.5 62.8734 0 
1012 1 61.71 64.9692 0 
1013 1 62.92 62.8734 0 
1014 1 64.13 64.9692 0 
1015 1 65.34 62.8734 0 
1016 1 66.55 64.9692 0 
1017 1 67.76 62.8734 0 
1018 1 68.97 64.9692 0 
1019 1 70.18 62.8734 0 
1020 1 71.39 64.9692 0 
1021 1 72.6 62.8734 0 
1022 1 73.81 64.9692 0 
1023 1 75.02 62.8734 0 
1024 1 76.23 64.9692 0 
1025 1 0 67.065 0 
1026 1 1.21 69.1608 0 
1027 1 2.42 67.065 0 
1028 1 3.63 69.1608 0 
1029 1 4.84 67.065 0 
1030 1 6.05 69.1608 0 
1031 1 7.26 67.065 0 
1032 1 8.47 69.1608 0 
1033 1 9.68 67.065 0 
1034 1 10.89 69.1608 0 
1035 1 12.1 67.065 0 
1036 1 13.31 69.1608 0 
1037 1 14.52 67.065 0 
1038 1 15.73 69.1608 0 
1039 1 16.94 67.065 0 
1040 1 18.15 69.1608 0 
1041 1 19.36 67.065 0 
1042 1 20.57 69.1608 0 
1043 1 21.78 67.065 0 
1044 1 22.99 69.1608 0 
1045 1 24.2 67.065 0 
1046 1 25.41 69.1608 0 
1047 1 26.62 67.065 0 
1048 1 27.83 69.1608 0 
1049 1 29.04 67.065 0 
1050 1 30.25 69.1608 0 
1051 1 31.46 67.065 0 
1052 1 32.67 69.1608 0 
1053 1 33.88 67.065 0 
1054 1 35.09 69.1608 0 
1055 1 36.3 67.065 0 
1056 1 37.51 69.1608 0 
1057 1 38.72 67.065 0 
1058 1 39.93 69.1608 0 
1059 1 41.14 67.065 0 
1060 1 42.35 69.1608 0 
1061 1 43.56 67.065 0 
1062 1 44.77 69.1608 0 
1063 1 45.98 67.065 0 
1064 1 47.19 69.1608 0 
1065 1 48.4 67.065 0 
1066 1 49.61 69.1608 0 
1067 1 50.82 67.065 0 
1068 1 52.03 69.1608 0 
1069 1 53.24 67.065 0 
1070 1 54.45 69.1608 0 
1071 1 55.66 67.065 0 
1072 1 56.87 69.1608 0 
1073 1 58.08 67.065 0 
1074 1 59.29 69.1608 0 
1075 1 60.5 67.065 0 
1076 1 61.71 69.1608 0 
1077 1 62.92 67.065 0 
1078 1 64.13 69.1608 0 
1079 1 65.34 67.065 0 
1080 1 66.55 69.1608 0 
1081 1 67.76 67.065 0 
1082 1 68.97 69.1608 0 
1083 1 70.18 67.065 0 
1084 1 71.39 69.1608 0 
1085 1 72.6 67.065 0 
1086 1 73.81 69.1608 0 
1087 1 75.02 67.065 0 
1088 1 76.23 69.1608 0 
1089 1 0 71.2566 0 
1090 1 1.21 73.3524 0 
1091 1 2.42 71.2566 0 
1092 1 3.63 73.3524 0 
1093 1 4.84 71.2566 0 
1094 1 6.05 73.3524 0 
1095 1 7.26 71.2566 0 
1096 1 8.47 73.3524 0 
1097 1 9.68 71.2566 0 
1098 1 10.89 73.3524 0 
1099 1 12.1 71.2566 0 
1100 1 13.31 73.3524 0 
1101 1 14.52 71.2566 0 
1102 1 15.73 73.3524 0 
1103 1 16.94 71.2566 0 
1104 1 18.15 73.3524 0 
1105 1 19.36 71.2566 0 
1106 1 20.57 73.3524 0 
1107 1 21.78 71.2566 0 
1108 1 22.99 73.3524 0 
1109 1 24.2 71.2566 0 
1110 1 25.41 73.3524 0 
1111 1 26.62 71.2566 0 
1112 1 27.83 73.3524 0 
1113 1 29.04 71.2566 0 
1114 1 30.25 73.3524 0 
1115 1 31.46 71.2566 0 
1116 1 32.67 73.3524 0 
1117 1 33.88 71.2566 0 
1118 1 35.09 73.3524 0 
1119 1 36.3 71.2566 0 
1120 1 37.51 73.3524 0 
1121 1 38.72 71.2566 0 
1122 1 39.93 73.3524 0 
1123 1 41.14 71.2566 0 
1124 1 42.35 73.3524 0 
1125 1 43.56 71.2566 0 
1126 1 44.77 73.3524 0 
1127 1 45.98 71.2566 0 
1128 1 47.19 73.3524 0 
1129 1 48.4 71.2566 0 
1130 1 49.61 73.3524 0 
1131 1 50.82 71.2566 0 
1132 1 52.03 73.3524 0 
1133 1 53.24 71.2566 0 
1134 1 54.45 73.3524 0 
1135 1 55.66 71.2566 0 
1136 1 56.87 73.3524 0 
1137 1 58.08 71.2566 0 
1138 1 59.29 73.3524 0 
1139 1 60.5 71.2566 0 
1140 1 61.71 73.3524 0 
1141 1 62.92 71.2566 0 
1142 1 64.13 73.3524 0 
1143 1 65.34 71.2566 0 
1144 1 66.55 73.3524 0 
1145 1 67.76 71.2566 0 
1146 1 68.97 73.3524 0 
1147 1 70.18 71.2566 0 
1148 1 71.39 73.3524 0 
1149 1 72.6 71.2566 0 
1150 1 73.81 73.3524 0 
1151 1 75.02 71.2566 0 
1152 1 76.23 73.3524 0 
1153 1 0 75.4481 0 
1154 1 1.21 77.5439 0 
1155 1 2.42 75.4481 0 
1156 1 3.63 77.5439 0 
1157 1 4.84 75.4481 0 
1158 1 6.05 77.5439 0 
1159 1 7.26 75.4481 0 
1160 1 8.47 77.5439 0 
1161 1 9.68 75.4481 0 
1162 1 10.89 77.5439 0 
1163 1 12.1 75.4481 0 
1164 1 13.31 77.5439 0 
1165 1 14.52 75.4481 0 
1166 1 15.73 77.5439 0 
1167 1 16.94 75.4481 0 
1168 1 18.15 77.5439 0 
1169 1 19.36 75.4481 0 
1170 1 20.57 77.5439 0 
1171 1 21.78 75.4481 0 
1172 1 22.99 77.5439 0 
1173 1 24.2 75.4481 0 
1174 1 25.41 77.5439 0 
1175 1 26.62 75.4481 0 
1176 1 27.83 77.5439 0 
1177 1 29.04 75.4481 0 
1178 1 30.25 77.5439 0 
1179 1 31.46 75.4481 0 
1180 1 32.67 77.5439 0 
1181 1 33.88 75.4481 0 
1182 1 35.09 77.5439 0 
1183 1 36.3 75.4481 0 
1184 1 37.51 77.5439 0 
1185 1 38.72 75.4481 0 
1186 1 39.93 77.5439 0 
1187 1 41.14 75.4481 0 
1188 1 42.35 77.5439 0 
1189 1 43.56 75.4481 0 
1190 1 44.77 77.5439 0 
1191 1 45.98 75.4481 0 
1192 1 47.19 77.5439 0 
1193 1 48.4 75.4481 0 
1194 1 49.61 77.5439 0 
1195 1 50.82 75.4481 0 
1196 1 52.03 77.5439 0 
1197 1 53.24 75.4481 0 
1198 1 54.45 77.5439 0 
1199 1 55.66 75.4481 0 
1200 1 56.87 77.5439 0 
1201 1 58.08 75.4481 0 
1202 1 59.29 77.5439 0 
1203 1 60.5 75.4481 0 
1204 1 61.71 77.5439 0 
1205 1 62.92 75.4481 0 
1206 1 64.13 77.5439 0 
1207 1 65.34 75.4481 0 
1208 1 66.55 77.5439 0 
1209 1 67.76 75.4481 0 
1210 1 68.97 77.5439 0 
1211 1 70.18 75.4481 0 
1212 1 71.39 77.5439 0 
1213 1 72.6 75.4481 0 
1214 1 73.81 77.5439 0 
1215 1 75.02 75.4481 0 
1216 1 76.23 77.5439 0 
1217 1 0 79.6397 0 
1218 1 1.21 81.7355 0 
1219 1 2.42 79.6397 0 
1220 1 3.63 81.7355 0 
1221 1 4.84 79.6397 0 
1222 1 6.05 81.7355 0 
1223 1 7.26 79.6397 0 
1224 1 8.47 81.7355 0 
1225 1 9.68 79.6397 0 
1226 1 10.89 81.7355 0 
1227 1 12.1 79.6397 0 
1228 1 13.31 81.7355 0 
1229 1 14.52 79.6397 0 
1230 1 15.73 81.7355 0 
1231 1 16.94 79.6397 0 
1232 1 18.15 81.7355 0 
1233 1 19.36 79.6397 0 
1234 1 20.57 81.7355 0 
1235 1 21.78 79.6397 0 
1236 1 22.99 81.7355 0 
1237 1 24.2 79.6397 0 
1238 1 25.41 81.7355 0 
1239 1 26.62 79.6397 0 
1240 1 27.83 81.7355 0 
1241 1 29.04 79.6397 0 
1242 1 30.25 81.7355 0 
1243 1 31.46 79.6397 0 
1244 1 32.67 81.7355 0 
1245 1 33.88 79.6397 0 
1246 1 35.09 81.7355 0 
1247 1 36.3 79.6397 0 
1248 1 37.51 81.7355 0 
1249 1 38.72 79.6397 0 
1250 1 39.93 81.7355 0 
1251 1 41.14 79.6397 0 
1252 1 42.35 81.7355 0 
1253 1 43.56 79.6397 0 
1254 1 44.77 81.7355 0 
1255 1 45.98 79.6397 0 
1256 1 47.19 81.7355 0 
1257 1 48.4 79.6397 0 
1258 1 49.61 81.7355 0 
1259 1 50.82 79.6397 0 
1260 1 52.03 81.7355 0 
1261 1 53.24 79.6397 0 
1262 1 54.45 81.7355 0 
1263 1 55.66 79.6397 0 
1264 1 56.87 81.7355 0 
1265 1 58.08 79.6397 0 
1266 1 59.29 81.7355 0 
1267 1 60.5 79.6397 0 
1268 1 61.71 81.7355 0 
1269 1 62.92 79.6397 0 
1270 1 64.13 81.7355 0 
1271 1 65.34 79.6397 0 
1272 1 66.55 81.7355 0 
1273 1 67.76 79.6397 0 
1274 1 68.97 81.7355 0 
1275 1 70.18 79.6397 0 
1276 1 71.39 81.7355 0 
1277 1 72.6 79.6397 0 
1278 1 73.81 81.7355 0 
1279 1 75.02 79.6397 0 
1280 1 76.23 81.7355 0 
1281 1 0 83.8313 0 
1282 1 1.21 85.927 0 
1283 1 2.42 83.8313 0 
1284 1 3.63 85.927 0 
1285 1 4.84 83.8313 0 
1286 1 6.05 85.927 0 
1287 1 7.26 83.8313 0 
1288 1 8.47 85.927 0 
1289 1 9.68 83.8313 0 
1290 1 10.89 85.927 0 
1291 1 12.1 83.8313 0 
1292 1 13.31 85.927 0 
1293 1 14.52 83.8313 0 
1294 1 15.73 85.927 0 
1295 1 16.94 83.8313 0 
1296 1 18.15 85.927 0 
1297 1 19.36 83.8313 0 
1298 1 20.57 85.927 0 
1299 1 21.78 83.8313 0 
1300 1 22.99 85.927 0 
1301 1 24.2 83.8313 0 
1302 1 25.41 85.927 0 
1303 1 26.62 83.8313 0 
1304 1 27.83 85.927 0 
1305 1 29.04 83.8313 0 
1306 1 30.25 85.927 0 
1307 1 31.46 83.8313 0 
1308 1 32.67 85.927 0 
1309 1 33.88 83.8313 0 
1310 1 35.09 85.927 0 
1311 1 36.3 83.8313 0 
1312 1 37.51 85.927 0 
1313 1 38.72 83.8313 0 
1314 1 39.93 85.927 0 
1315 1 41.14 83.8313 0 
1316 1 42.35 85.927 0 
1317 1 43.56 83.8313 0 
1318 1 44.77 85.927 0 
1319 1 45.98 83.8313 0 
1320 1 47.19 85.927 0 
1321 1 48.4 83.8313 0 
1322 1 49.61 85.927 0 
1323 1 50.82 83.8313 0 
1324 1 52.03 85.927 0 
1325 1 53.24 83.8313 0 
1326 1 54.45 85.927 0 
1327 1 55.66 83.8313 0 
1328 1 56.87 85.927 0 
1329 1 58.08 83.8313 0 
1330 1 59.29 85.927 0 
1331 1 60.5 83.8313 0 
1332 1 61.71 85.927 0 
1333 1 62.92 83.8313 0 
1334 1 64.13 85.927 0 
1335 1 65.34 83.8313 0 
1336 1 66.55 85.927 0 
1337 1 67.76 83.8313 0 
1338 1 68.97 85.927 0 
1339 1 70.18 83.8313 0 
1340 1 71.39 85.927 0 
1341 1 72.6 83.8313 0 
1342 1 73.81 85.927 0 
1343 1 75.02 83.8313 0 
1344 1 76.23 85.927 0 
1345 1 0 88.0228 0 
1346 1 1.21 90.1186 0 
1347 1 2.42 88.0228 0 
1348 1 3.63 90.1186 0 
1349 1 4.84 88.0228 0 
1350 1 6.05 90.1186 0 
1351 1 7.26 88.0228 0 
1352 1 8.47 90.1186 0 
1353 1 9.68 88.0228 0 
1354 1 10.89 90.1186 0 
1355 1 12.1 88.0228 0 
1356 1 13.31 90.1186 0 
1357 1 14.52 88.0228 0 
1358 1 15.73 90.1186 0 
1359 1 16.94 88.0228 0 
1360 1 18.15 90.1186 0 
1361 1 19.36 88.0228 0 
1362 1 20.57 90.1186 0 
1363 1 21.78 88.0228 0 
1364 1 22.99 90.1186 0 
1365 1 24.2 88.0228 0 
1366 1 25.41 90.1186 0 
1367 1 26.62 88.0228 0 
1368 1 27.83 90.1186 0 
1369 1 29.04 88.0228 0 
1370 1 30.25 90.1186 0 
1371 1 31.46 88.0228 0 
1372 1 32.67 90.1186 0 
1373 1 33.88 88.0228 0 
1374 1 35.09 90.1186 0 
1375 1 36.3 88.0228 0 
1376 1 37.51 90.1186 0 
1377 1 38.72 88.0228 0 
1378 1 39.93 90.1186 0 
1379 1 41.14 88.0228 0 
1380 1 42.35 90.1186 0 
1381 1 43.56 88.0228 0 
1382 1 44.77 90.1186 0 
1383 1 45.98 88.0228 0 
1384 1 47.19 90.1186 0 
1385 1 48.4 88.0228 0 
1386 1 49.61 90.1186 0 
1387 1 50.82 88.0228 0 
1388 1 52.03 90.1186 0 
1389 1 53.24 88.0228 0 
1390 1 54.45 90.1186 0 
1391 1 55.66 88.0228 0 
1392 1 56.87 90.1186 0 
1393 1 58.08 88.0228 0 
1394 1 59.29 90.1186 0 
1395 1 60.5 88.0228 0 
1396 1 61.71 90.1186 0 
1397 1 62.92 88.0228 0 
1398 1 64.13 90.1186 0 
1399 1 65.34 88.0228 0 
1400 1 66.55 90.1186 0 
1401 1 67.76 88.0228 0 
1402 1 68.97 90.1186 0 
1403 1 70.18 88.0228 0 
1404 1 71.39 90.1186 0 
1405 1 72.6 88.0228 0 
1406 1 73.81 90.1186 0 
1407 1 75.02 88.0228 0 
1408 1 76.23 90.1186 0 
1409 1 0 92.2144 0 
1410 1 1.21 94.3102 0 
1411 1 2.42 92.2144 0 
1412 1 3.63 94.3102 0 
1413 1 4.84 92.2144 0 
1414 1 6.05 94.3102 0 
1415 1 7.26 92.2144 0 
1416 1 8.47 94.3102 0 
1417 1 9.68 92.2144 0 
1418 1 10.89 94.3102 0 
1419 1 12.1 92.2144 0 
1420 1 13.31 94.3102 0 
1421 1 14.52 92.2144 0 
1422 1 15.73 94.3102 0 
1423 1 16.94 92.2144 0 
1424 1 18.15 94.3102 0 
1425 1 19.36 92.2144 0 
1426 1 20.57 94.3102 0 
1427 1 21.78 92.2144 0 
1428 1 22.99 94.3102 0 
1429 1 24.2 92.2144 0 
1430 1 25.41 94.3102 0 
1431 1 26.62 92.2144 0 
1432 1 27.83 94.3102 0 
1433 1 29.04 92.2144 0 
1434 1 30.25 94.3102 0 
1435 1 31.46 92.2144 0 
1436 1 32.67 94.3102 0 
1437 1 33.88 92.2144 0 
1438 1 35.09 94.3102 0 
1439 1 36.3 92.2144 0 
1440 1 37.51 94.3102 0 
1441 1 38.72 92.2144 0 
1442 1 39.93 94.3102 0 
1443 1 41.14 92.2144 0 
1444 1 42.35 94.3102 0 
1445 1 43.56 92.2144 0 
1446 1 44.77 94.3102 0 
1447 1 45.98 92.2144 0 
1448 1 47.19 94.3102 0 
1449 1 48.4 92.2144 0 
1450 1 49.61 94.3102 0 
1451 1 50.82 92.2144 0 
1452 1 52.03 94.3102 0 
1453 1 53.24 92.2144 0 
1454 1 54.45 94.3102 0 
1455 1 55.66 92.2144 0 
1456 1 56.87 94.3102 0 
1457 1 58.08 92.2144 0 
1458 1 59.29 94.3102 0 
1459 1 60.5 92.2144 0 
1460 1 61.71 94.3102 0 
1461 1 62.92 92.2144 0 
1462 1 64.13 94.3102 0 
1463 1 65.34 92.2144 0 
1464 1 66.55 94.3102 0 
1465 1 67.76 92.2144 0 
1466 1 68.97 94.3102 0 
1467 1 70.18 92.2144 0 
1468 1 71.39 94.3102 0 
1469 1 72.6 92.2144 0 
1470 1 73.81 94.3102 0 
1471 1 75.02 92.2144 0 
1472 1 76.23 94.3102 0 
1473 3 0 96.4059 0 
1474 3 1.21 98.5017 0 
1475 3 2.42 96.4059 0 
1476 3 3.63 98.5017 0 
1477 3 4.84 96.4059 0 
1478 3 6.05 98.5017 0 
1479 3 7.26 96.4059 0 
1480 3 8.47 98.5017 0 
1481 3 9.68 96.4059 0 
1482 3 10.89 98.5017 0 
1483 3 12.1 96.4059 0 
1484 3 13.31 98.5017 0 
1485 3 14.52 96.4059 0 
1486 3 15.73 98.5017 0 
1487 3 16.94 96.4059 0 
1488 3 18.15 98.5017 0 
1489 3 19.36 96.4059 0 
1490 3 20.57 98.5017 0 
1491 3 21.78 96.4059 0 
1492 3 22.99 98.5017 0 
1493 3 24.2 96.4059 0 
1494 3 25.41 98.5017 0 
1495 3 26.62 96.4059 0 
1496 3 27.83 98.5017 0 
1497 3 29.04 96.4059 0 
1498 3 30.25 98.5017 0 
1499 3 31.46 96.4059 0 
1500 3 32.67 98.5017 0 
1501 3 33.88 96.4059 0 
1502 3 35.09 98.5017 0 
1503 3 36.3 96.4059 0 
1504 3 37.51 98.5017 0 
1505 3 38.72 96.4059 0 
1506 3 39.93 98.5017 0 
1507 3 41.14 96.4059 0 
1508 3 42.35 98.5017 0 
1509 3 43.56 96.4059 0 
1510 3 44.77 98.5017 0 
1511 3 45.98 96.4059 0 
1512 3 47.19 98.5017 0 
1513 3 48.4 96.4059 0 
1514 3 49.61 98.5017 0 
1515 3 50.82 96.4059 0 
1516 3 52.03 98.5017 0 
1517 3 53.24 96.4059 0 
1518 3 54.45 98.5017 0 
1519 3 55.66 96.4059 0 
1520 3 56.87 98.5017 0 
1521 3 58.08 96.4059 0 
1522 3 59.29 98.5017 0 
1523 3 60.5 96.4059 0 
1524 3 61.71 98.5017 0 
1525 3 62.92 96.4059 0 
1526 3 64.13 98.5017 0 
1527 3 65.34 96.4059 0 
1528 3 66.55 98.5017 0 
1529 3 67.76 96.4059 0 
1530 3 68.97 98.5017 0 
1531 3 70.18 96.4059 0 
1532 3 71.39 98.5017 0 
1533 3 72.6 96.4059 0 
1534 3 73.81 98.5017 0 
1535 3 75.02 96.4059 0 
1536 3 76.23 98.5017 0 
ITEM: TIMESTEP
8 1.60093e+11
ITEM: NUMBER OF ATOMS
1536
ITEM: BOX BOUNDS
0 77.44
0 100.598
-1.21 1.21
ITEM: ATOMS id type x y z
1 2 0 0 0 
2 2 1.21 2.09578 0 
3 2 2.42 0 0 
4 2 3.63 2.09578 0 
5 2 4.84 0 0 
6 2 6.05 2.09578 0 
7 2 7.26 0 0 
8 2 8.47 2.09578 0 
9 2 9.68 0 0 
10 2 10.89 2.09578 0 
11 2 12.1 0 0 
12 2 13.31 2.09578 0 
13 2 14.52 0 0 
14 2 15.73 2.09578 0 
15 2 16.94 0 0 
16 2 18.15 2.09578 0 
17 2 19.36 0 0 
18 2 20.57 2.09578 0 
19 2 21.78 0 0 
20 2 22.99 2.09578 0 
21 2 24.2 0 0 
22 2 25.41 2.09578 0 
23 2 26.62 0 0 
24 2 27.83 2.09578 0 
25 2 29.04 0 0 
26 2 30.25 2.09578 0 
27 2 31.46 0 0 
28 2 32.67 2.09578 0 
29 2 33.88 0 0 
30 2 35.09 2.09578 0 
31 2 36.3 0 0 
32 2 37.51 2.09578 0 
33 2 38.72 0 0 
34 2 39.93 2.09578 0 
35 2 41.14 0 0 
36 2 42.35 2.09578 0 
37 2 43.56 0 0 
38 2 44.77 2.09578 0 
39 2 45.98 0 0 
40 2 47.19 2.09578 0 
41 2 48.4 0 0 
42 2 49.61 2.09578 0 
43 2 50.82 0 0 
44 2 52.03 2.09578 0 
45 2 53.24 0 0 
46 2 54.45 2.09578 0 
47 2 55.66 0 0 
48 2 56.87 2.09578 0 
49 2 58.08 0 0 
50 2 59.29 2.09578 0 
51 2 60.5 0 0 
52 2 61.71 2.09578 0 
53 2 62.92 0 0 
54 2 64.13 2.09578 0 
55 2 65.34 0 0 
56 2 66.55 2.09578 0 
57 2 67.76 0 0 
58 2 68.97 2.09578 0 
59 2 70.18 0 0 
60 2 71.39 2.09578 0 
61 2 72.6 0 0 
62 2 73.81 2.09578 0 
63 2 75.02 0 0 
64 2 76.23 2.09578 0 
65 2 0 4.19156 0 
66 2 1.21 6.28734 0 
67 2 2.42 4.19156 0 
68 2 3.63 6.28734 0 
69 2 4.84 4.19156 0 
70 2 6.05 6.28734 0 
71 2 7.26 4.19156 0 
72 2 8.47 6.28734 0 
73 2 9.68 4.19156 0 
74 2 10.89 6.28734 0 
75 2 12.1 4.19156 0 
76 2 13.31 6.28734 0 
77 2 14.52 4.19156 0 
78 2 15.73 6.28734 0 
79 2 16.94 4.19156 0 
80 2 18.15 6.28734 0 
81 2 19.36 4.19156 0 
82 2 20.57 6.28734 0 
83 2 21.78 4.19156 0 
84 2 22.99 6.28734 0 
85 2 24.2 4.19156 0 
86 2 25.41 6.28734 0 
87 2 26.62 4.19156 0 
88 2 27.83 6.28734 0 
89 2 29.04 4.19156 0 
90 2 30.25 6.28734 0 
91 2 31.46 4.19156 0 
92 2 32.67 6.28734 0 
93 2 33.88 4.19156 0 
94 2 35.09 6.28734 0 
95 2 36.3 4.19156 0 
96 2 37.51 6.28734 0 
97 2 38.72 4.19156 0 
98 2 39.93 6.28734 0 
99 2 41.14 4.19156 0 
100 2 42.35 6.28734 0 
101 2 43.56 4.19156 0 
102 2 44.77 6.28734 0 
103 2 45.98 4.19156 0 
104 2 47.19 6.28734 0 
105 2 48.4 4.19156 0 
106 2 49.61 6.28734 0 
107 2 50.82 4.19156 0 
108 2 52.03 6.28734 0 
109 2 53.24 4.19156 0 
110 2 54.45 6.28734 0 
111 2 55.66 4.19156 0 
112 2 56.87 6.28734 0 
113 2 58.08 4.19156 0 
114 2 59.29 6.28734 0 
115 2 60.5 4.19156 0 
116 2 61.71 6.28734 0 
117 2 62.92 4.19156 0 
118 1 64.13 6.28734 0 
119 2 65.34 4.19156 0 
120 2 66.55 6.28734 0 
121 2 67.76 4.19156 0 
122 2 68.97 6.28734 0 
123 2 70.18 4.19156 0 
124 2 71.39 6.28734 0 
125 2 72.6 4.19156 0 
126 2 73.81 6.28734 0 
127 2 75.02 4.19156 0 
128 2 76.23 6.28734 0 
129 2 0 8.38313 0 
130 2 1.21 10.4789 0 
131 2 2.42 8.38313 0 
132 1 3.63 10.4789 0 
133 2 4.84 8.38313 0 
134 2 6.05 10.4789 0 
135 2 7.26 8.38313 0 
136 2 8.47 10.4789 0 
137 2 9.68 8.38313 0 
138 2 10.89 10.4789 0 
139 2 12.1 8.38313 0 
140 2 13.31 10.4789 0 
141 2 14.52 8.38313 0 
142 2 15.73 10.4789 0 
143 2 16.94 8.38313 0 
144 2 18.15 10.4789 0 
145 2 19.36 8.38313 0 
146 2 20.57 10.4789 0 
147 2 21.78 8.38313 0 
148 2 22.99 10.4789 0 
149 2 24.2 8.38313 0 
150 2 25.41 10.4789 0 
151 2 26.62 8.38313 0 
152 2 27.83 10.4789 0 
153 2 29.04 8.38313 0 
154 2 30.25 10.4789 0 
155 2 31.46 8.38313 0 
156 2 32.67 10.4789 0 
157 2 33.88 8.38313 0 
158 2 35.09 10.4789 0 
159 2 36.3 8.38313 0 
160 2 37.51 10.4789 0 
161 2 38.72 8.38313 0 
162 2 39.93 10.4789 0 
163 2 41.14 8.38313 0 
164 2 42.35 10.4789 0 
165 2 43.56 8.38313 0 
166 2 44.77 10.4789 0 
167 2 45.98 8.38313 0 
168 2 47.19 10.4789 0 
169 2 48.4 8.38313 0 
170 2 49.61 10.4789 0 
171 2 50.82 8.38313 0 
172 2 52.03 10.4789 0 
173 2 53.24 8.38313 0 
174 2 54.45 10.4789 0 
175 2 55.66 8.38313 0 
176 2 56.87 10.4789 0 
177 2 58.08 8.38313 0 
178 2 59.29 10.4789 0 
179 2 60.5 8.38313 0 
180 2 61.71 10.4789 0 
181 1 62.92 8.38313 0 
182 2 64.13 10.4789 0 
183 2 65.34 8.38313 0 
184 2 66.55 10.4789 0 
185 2 67.76 8.38313 0 
186 2 68.97 10.4789 0 
187 2 70.18 8.38313 0 
188 2 71.39 10.4789 0 
189 2 72.6 8.38313 0 
190 2 73.81 10.4789 0 
191 2 75.02 8.38313 0 
192 2 76.23 10.4789 0 
193 2 0 12.5747 0 
194 2 1.21 14.6705 0 
195 2 2.42 12.5747 0 
196 2 3.63 14.6705 0 
197 1 4.84 12.5747 0 
198 1 6.05 14.6705 0 
199 2 7.26 12.5747 0 
200 2 8.47 14.6705 0 
201 2 9.68 12.5747 0 
202 2 10.89 14.6705 0 
203 2 12.1 12.5747 0 
204 2 13.31 14.6705 0 
205 2 14.52 12.5747 0 
206 2 15.73 14.6705 0 
207 2 16.94 12.5747 0 
208 2 18.15 14.6705 0 
209 2 19.36 12.5747 0 
210 2 20.57 14.6705 0 
211 2 21.78 12.5747 0 
212 2 22.99 14.6705 0 
213 2 24.2 12.5747 0 
214 2 25.41 14.6705 0 
215 2 26.62 12.5747 0 
216 2 27.83 14.6705 0 
217 2 29.04 12.5747 0 
218 2 30.25 14.6705 0 
219 2 31.46 12.5747 0 
220 2 32.67 14.6705 0 
221 2 33.88 12.5747 0 
222 2 35.09 14.6705 0 
223 2 36.3 12.5747 0 
224 2 37.51 14.6705 0 
225 2 38.72 12.5747 0 
226 2 39.93 14.6705 0 
227 2 41.14 12.5747 0 
228 2 42.35 14.6705 0 
229 2 43.56 12.5747 0 
230 2 44.77 14.6705 0 
231 2 45.98 12.5747 0 
232 2 47.19 14.6705 0 
233 2 48.4 12.5747 0 
234 2 49.61 14.6705 0 
235 2 50.82 12.5747 0 
236 2 52.03 14.6705 0 
237 2 53.24 12.5747 0 
238 2 54.45 14.6705 0 
239 2 55.66 12.5747 0 
240 2 56.87 14.6705 0 
241 2 58.08 12.5747 0 
242 2 59.29 14.6705 0 
243 2 60.5 12.5747 0 
244 1 61.71 14.6705 0 
245 1 62.92 12.5747 0 
246 1 64.13 14.6705 0 
247 2 65.34 12.5747 0 
248 2 66.55 14.6705 0 
249 2 67.76 12.5747 0 
250 2 68.97 14.6705 0 
251 2 70.18 12.5747 0 
252 2 71.39 14.6705 0 
253 2 72.6 12.5747 0 
254 2 73.81 14.6705 0 
255 2 75.02 12.5747 0 
256 2 76.23 14.6705 0 
257 2 0 16.7663 0 
258 2 1.21 18.862 0 
259 2 2.42 16.7663 0 
260 2 3.63 18.862 0 
261 1 4.84 16.7663 0 
262 1 6.05 18.862 0 
263 1 7.26 16.7663 0 
264 1 8.47 18.862 0 
265 1 9.68 16.7663 0 
266 1 10.89 18.862 0 
267 2 12.1 16.7663 0 
268 2 13.31 18.862 0 
269 2 14.52 16.7663 0 
270 2 15.73 18.862 0 
271 2 16.94 16.7663 0 
272 2 18.15 18.862 0 
273 2 19.36 16.7663 0 
274 2 20.57 18.862 0 
275 2 21.78 16.7663 0 
276 2 22.99 18.862 0 
277 2 24.2 16.7663 0 
278 2 25.41 18.862 0 
279 2 26.62 16.7663 0 
280 2 27.83 18.862 0 
281 2 29.04 16.7663 0 
282 2 30.25 18.862 0 
283 2 31.46 16.7663 0 
284 2 32.67 18.862 0 
285 2 33.88 16.7663 0 
286 2 35.09 18.862 0 
287 2 36.3 16.7663 0 
288 2 37.51 18.862 0 
289 2 38.72 16.7663 0 
290 2 39.93 18.862 0 
291 2 41.14 16.7663 0 
292 2 42.35 18.862 0 
293 2 43.56 16.7663 0 
294 2 44.77 18.862 0 
295 2 45.98 16.7663 0 
296 2 47.19 18.862 0 
297 2 48.4 16.7663 0 
298 1 49.61 18.862 0 
299 1 50.82 16.7663 0 
300 1 52.03 18.862 0 
301 1 53.24 16.7663 0 
302 1 54.45 18.862 0 
303 1 55.66 16.7663 0 
304 1 56.87 18.862 0 
305 2 58.08 16.7663 0 
306 1 59.29 18.862 0 
307 1 60.5 16.7663 0 
308 1 61.71 18.862 0 
309 1 62.92 16.7663 0 
310 2 64.13 18.862 0 
311 2 65.34 16.7663 0 
312 2 66.55 18.862 0 
313 2 67.76 16.7663 0 
314 2 68.97 18.862 0 
315 2 70.18 16.7663 0 
316 2 71.39 18.862 0 
317 2 72.6 16.7663 0 
318 2 73.81 18.862 0 
319 2 75.02 16.7663 0 
320 2 76.23 18.862 0 
321 2 0 20.9578 0 
322 2 1.21 23.0536 0 
323 2 2.42 20.9578 0 
324 2 3.63 23.0536 0 
325 2 4.84 20.9578 0 
326 2 6.05 23.0536 0 
327 1 7.26 20.9578 0 
328 1 8.47 23.0536 0 
329 1 9.68 20.9578 0 
330 1 10.89 23.0536 0 
331 1 12.1 20.9578 0 
332 1 13.31 23.0536 0 
333 2 14.52 20.9578 0 
334 2 15.73 23.0536 0 
335 2 16.94 20.9578 0 
336 2 18.15 23.0536 0 
337 2 19.36 20.9578 0 
338 2 20.57 23.0536 0 
339 2 21.78 20.9578 0 
340 2 22.99 23.0536 0 
341 2 24.2 20.9578 0 
342 2 25.41 23.0536 0 
343 2 26.62 20.9578 0 
344 2 27.83 23.0536 0 
345 2 29.04 20.9578 0 
346 2 30.25 23.0536 0 
347 2 31.46 20.9578 0 
348 2 32.67 23.0536 0 
349 2 33.88 20.9578 0 
350 2 35.09 23.0536 0 
351 2 36.3 20.9578 0 
352 2 37.51 23.0536 0 
353 2 38.72 20.9578 0 
354 2 39.93 23.0536 0 
355 2 41.14 20.9578 0 
356 2 42.35 23.0536 0 
357 2 43.56 20.9578 0 
358 2 44.77 23.0536 0 
359 2 45.98 20.9578 0 
360 2 47.19 23.0536 0 
361 2 48.4 20.9578 0 
362 2 49.61 23.0536 0 
363 1 50.82 20.9578 0 
364 1 52.03 23.0536 0 
365 1 53.24 20.9578 0 
366 1 54.45 23.0536 0 
367 1 55.66 20.9578 0 
368 1 56.87 23.0536 0 
369 1 58.08 20.9578 0 
370 1 59.29 23.0536 0 
371 1 60.5 20.9578 0 
372 1 61.71 23.0536 0 
373 1 62.92 20.9578 0 
374 1 64.13 23.0536 0 
375 2 65.34 20.9578 0 
376 2 66.55 23.0536 0 
377 2 67.76 20.9578 0 
378 2 68.97 23.0536 0 
379 2 70.18 20.9578 0 
380 2 71.39 23.0536 0 
381 2 72.6 20.9578 0 
382 2 73.81 23.0536 0 
383 2 75.02 20.9578 0 
384 2 76.23 23.0536 0 
385 2 0 25.1494 0 
386 2 1.21 27.2452 0 
387 2 2.42 25.1494 0 
388 2 3.63 27.2452 0 
389 2 4.84 25.1494 0 
390 1 6.05 27.2452 0 
391 1 7.26 25.1494 0 
392 1 8.47 27.2452 0 
393 1 9.68 25.1494 0 
394 1 10.89 27.2452 0 
395 1 12.1 25.1494 0 
396 1 13.31 27.2452 0 
397 1 14.52 25.1494 0 
398 1 15.73 27.2452 0 
399 1 16.94 25.1494 0 
400 1 18.15 27.2452 0 
401 1 19.36 25.1494 0 
402 1 20.57 27.2452 0 
403 2 21.78 25.1494 0 
404 2 22.99 27.2452 0 
405 2 24.2 25.1494 0 
406 2 25.41 27.2452 0 
407 2 26.62 25.1494 0 
408 2 27.83 27.2452 0 
409 2 29.04 25.1494 0 
410 2 30.25 27.2452 0 
411 2 31.46 25.1494 0 
412 1 32.67 27.2452 0 
413 2 33.88 25.1494 0 
414 1 35.09 27.2452 0 
415 2 36.3 25.1494 0 
416 1 37.51 27.2452 0 
417 1 38.72 25.1494 0 
418 1 39.93 27.2452 0 
419 1 41.14 25.1494 0 
420 2 42.35 27.2452 0 
421 2 43.56 25.1494 0 
422 2 44.77 27.2452 0 
423 2 45.98 25.1494 0 
424 2 47.19 27.2452 0 
425 2 48.4 25.1494 0 
426 2 49.61 27.2452 0 
427 2 50.82 25.1494 0 
428 2 52.03 27.2452 0 
429 1 53.24 25.1494 0 
430 1 54.45 27.2452 0 
431 1 55.66 25.1494 0 
432 1 56.87 27.2452 0 
433 1 58.08 25.1494 0 
434 1 59.29 27.2452 0 
435 1 60.5 25.1494 0 
436 1 61.71 27.2452 0 
437 1 62.92 25.1494 0 
438 1 64.13 27.2452 0 
439 1 65.34 25.1494 0 
440 1 66.55 27.2452 0 
441 1 67.76 25.1494 0 
442 1 68.97 27.2452 0 
443 2 70.18 25.1494 0 
444 2 71.39 27.2452 0 
445 2 72.6 25.1494 0 
446 2 73.81 27.2452 0 
447 2 75.02 25.1494 0 
448 2 76.23 27.2452 0 
449 2 0 29.3409 0 
450 2 1.21 31.4367 0 
451 2 2.42 29.3409 0 
452 2 3.63 31.4367 0 
453 1 4.84 29.3409 0 
454 1 6.05 31.4367 0 
455 1 7.26 29.3409 0 
456 1 8.47 31.4367 0 
457 1 9.68 29.3409 0 
458 1 10.89 31.4367 0 
459 1 12.1 29.3409 0 
460 1 13.31 31.4367 0 
461 1 14.52 29.3409 0 
462 1 15.73 31.4367 0 
463 1 16.94 29.3409 0 
464 1 18.15 31.4367 0 
465 1 19.36 29.3409 0 
466 2 20.57 31.4367 0 
467 2 21.78 29.3409 0 
468 2 22.99 31.4367 0 
469 2 24.2 29.3409 0 
470 2 25.41 31.4367 0 
471 2 26.62 29.3409 0 
472 1 27.83 31.4367 0 
473 1 29.04 29.3409 0 
474 1 30.25 31.4367 0 
475 1 31.46 29.3409 0 
476 1 32.67 31.4367 0 
477 1 33.88 29.3409 0 
478 1 35.09 31.4367 0 
479 1 36.3 29.3409 0 
480 1 37.51 31.4367 0 
481 1 38.72 29.3409 0 
482 1 39.93 31.4367 0 
483 1 41.14 29.3409 0 
484 2 42.35 31.4367 0 
485 2 43.56 29.3409 0 
486 2 44.77 31.4367 0 
487 2 45.98 29.3409 0 
488 2 47.19 31.4367 0 
489 2 48.4 29.3409 0 
490 2 49.61 31.4367 0 
491 2 50.82 29.3409 0 
492 2 52.03 31.4367 0 
493 1 53.24 29.3409 0 
494 1 54.45 31.4367 0 
495 1 55.66 29.3409 0 
496 1 56.87 31.4367 0 
497 1 58.08 29.3409 0 
498 1 59.29 31.4367 0 
499 1 60.5 29.3409 0 
500 1 61.71 31.4367 0 
501 1 62.92 29.3409 0 
502 1 64.13 31.4367 0 
503 1 65.34 29.3409 0 
504 1 66.55 31.4367 0 
505 1 67.76 29.3409 0 
506 1 68.97 31.4367 0 
507 1 70.18 29.3409 0 
508 1 71.39 31.4367 0 
509 2 72.6 29.3409 0 
510 1 73.81 31.4367 0 
511 2 75.02 29.3409 0 
512 2 76.23 31.4367 0 
513 1 0 33.5325 0 
514 1 1.21 35.6283 0 
515 2 2.42 33.5325 0 
516 2 3.63 35.6283 0 
517 2 4.84 33.5325 0 
518 2 6.05 35.6283 0 
519 1 7.26 33.5325 0 
520 1 8.47 35.6283 0 
521 1 9.68 33.5325 0 
522 1 10.89 35.6283 0 
523 1 12.1 33.5325 0 
524 1 13.31 35.6283 0 
525 1 14.52 33.5325 0 
526 1 15.73 35.6283 0 
527 1 16.94 33.5325 0 
528 1 18.15 35.6283 0 
529 2 19.36 33.5325 0 
530 1 20.57 35.6283 0 
531 2 21.78 33.5325 0 
532 2 22.99 35.6283 0 
533 2 24.2 33.5325 0 
534 2 25.41 35.6283 0 
535 1 26.62 33.5325 0 
536 1 27.83 35.6283 0 
537 1 29.04 33.5325 0 
538 1 30.25 35.6283 0 
539 1 31.46 33.5325 0 
540 1 32.67 35.6283 0 
541 1 33.88 33.5325 0 
542 1 35.09 35.6283 0 
543 1 36.3 33.5325 0 
544 1 37.51 35.6283 0 
545 1 38.72 33.5325 0 
546 2 39.93 35.6283 0 
547 2 41.14 33.5325 0 
548 1 42.35 35.6283 0 
549 2 43.56 33.5325 0 
550 1 44.77 35.6283 0 
551 2 45.98 33.5325 0 
552 2 47.19 35.6283 0 
553 2 48.4 33.5325 0 
554 2 49.61 35.6283 0 
555 2 50.82 33.5325 0 
556 2 52.03 35.6283 0 
557 2 53.24 33.5325 0 
558 2 54.45 35.6283 0 
559 1 55.66 33.5325 0 
560 1 56.87 35.6283 0 
561 1 58.08 33.5325 0 
562 1 59.29 35.6283 0 
563 1 60.5 33.5325 0 
564 1 61.71 35.6283 0 
565 1 62.92 33.5325 0 
566 1 64.13 35.6283 0 
567 1 65.34 33.5325 0 
568 1 66.55 35.6283 0 
569 1 67.76 33.5325 0 
570 1 68.97 35.6283 0 
571 1 70.18 33.5325 0 
572 1 71.39 35.6283 0 
573 1 72.6 33.5325 0 
574 1 73.81 35.6283 0 
575 1 75.02 33.5325 0 
576 1 76.23 35.6283 0 
577 1 0 37.7241 0 
578 1 1.21 39.8198 0 
579 1 2.42 37.7241 0 
580 1 3.63 39.8198 0 
581 2 4.84 37.7241 0 
582 1 6.05 39.8198 0 
583 1 7.26 37.7241 0 
584 1 8.47 39.8198 0 
585 1 9.68 37.7241 0 
586 1 10.89 39.8198 0 
587 1 12.1 37.7241 0 
588 1 13.31 39.8198 0 
589 1 14.52 37.7241 0 
590 1 15.73 39.8198 0 
591 1 16.94 37.7241 0 
592 1 18.15 39.8198 0 
593 1 19.36 37.7241 0 
594 1 20.57 39.8198 0 
595 1 21.78 37.7241 0 
596 1 22.99 39.8198 0 
597 1 24.2 37.7241 0 
598 1 25.41 39.8198 0 
599 1 26.62 37.7241 0 
600 1 27.83 39.8198 0 
601 1 29.04 37.7241 0 
602 1 30.25 39.8198 0 
603 1 31.46 37.7241 0 
604 1 32.67 39.8198 0 
605 1 33.88 37.7241 0 
606 1 35.09 39.8198 0 
607 1 36.3 37.7241 0 
608 1 37.51 39.8198 0 
609 1 38.72 37.7241 0 
610 1 39.93 39.8198 0 
611 1 41.14 37.7241 0 
612 1 42.35 39.8198 0 
613 1 43.56 37.7241 0 
614 1 44.77 39.8198 0 
615 1 45.98 37.7241 0 
616 1 47.19 39.8198 0 
617 1 48.4 37.7241 0 
618 1 49.61 39.8198 0 
619 2 50.82 37.7241 0 
620 1 52.03 39.8198 0 
621 2 53.24 37.7241 0 
622 1 54.45 39.8198 0 
623 1 55.66 37.7241 0 
624 1 56.87 39.8198 0 
625 1 58.08 37.7241 0 
626 1 59.29 39.8198 0 
627 1 60.5 37.7241 0 
628 1 61.71 39.8198 0 
629 1 62.92 37.7241 0 
630 1 64.13 39.8198 0 
631 1 65.34 37.7241 0 
632 1 66.55 39.8198 0 
633 1 67.76 37.7241 0 
634 1 68.97 39.8198 0 
635 1 70.18 37.7241 0 
636 1 71.39 39.8198 0 
637 1 72.6 37.7241 0 
638 1 73.81 39.8198 0 
639 1 75.02 37.7241 0 
640 1 76.23 39.8198 0 
641 1 0 41.9156 0 
642 1 1.21 44.0114 0 
643 1 2.42 41.9156 0 
644 1 3.63 44.0114 0 
645 1 4.84 41.9156 0 
646 1 6.05 44.0114 0 
647 1 7.26 41.9156 0 
648 1 8.47 44.0114 0 
649 1 9.68 41.9156 0 
650 1 10.89 44.0114 0 
651 1 12.1 41.9156 0 
652 1 13.31 44.0114 0 
653 1 14.52 41.9156 0 
654 1 15.73 44.0114 0 
655 1 16.94 41.9156 0 
656 1 18.15 44.0114 0 
657 1 19.36 41.9156 0 
658 1 20.57 44.0114 0 
659 1 21.78 41.9156 0 
660 1 22.99 44.0114 0 
661 1 24.2 41.9156 0 
662 1 25.41 44.0114 0 
663 1 26.62 41.9156 0 
664 1 27.83 44.0114 0 
665 1 29.04 41.9156 0 
666 1 30.25 44.0114 0 
667 1 31.46 41.9156 0 
668 1 32.67 44.0114 0 
669 1 33.88 41.9156 0 
670 1 35.09 44.0114 0 
671 1 36.3 41.9156 0 
672 1 37.51 44.0114 0 
673 1 38.72 41.9156 0 
674 1 39.93 44.0114 0 
675 1 41.14 41.9156 0 
676 1 42.35 44.0114 0 
677 1 43.56 41.9156 0 
678 1 44.77 44.0114 0 
679 1 45.98 41.9156 0 
680 1 47.19 44.0114 0 
681 1 48.4 41.9156 0 
682 1 49.61 44.0114 0 
683 1 50.82 41.9156 0 
684 1 52.03 44.0114 0 
685 1 53.24 41.9156 0 
686 1 54.45 44.0114 0 
687 1 55.66 41.9156 0 
688 1 56.87 44.0114 0 
689 1 58.08 41.9156 0 
690 1 59.29 44.0114 0 
691 1 60.5 41.9156 0 
692 1 61.71 44.0114 0 
693 1 62.92 41.9156 0 
694 1 64.13 44.0114 0 
695 1 65.34 41.9156 0 
696 1 66.55 44.0114 0 
697 1 67.76 41.9156 0 
698 1 68.97 44.0114 0 
699 1 70.18 41.9156 0 
700 1 71.39 44.0114 0 
701 1 72.6 41.9156 0 
702 1 73.81 44.0114 0 
703 1 75.02 41.9156 0 
704 1 76.23 44.0114 0 
705 1 0 46.1072 0 
706 1 1.21 48.203 0 
707 1 2.42 46.1072 0 
708 1 3.63 48.203 0 
709 1 4.84 46.1072 0 
710 1 6.05 48.203 0 
711 1 7.26 46.1072 0 
712 1 8.47 48.203 0 
713 1 9.68 46.1072 0 
714 1 10.89 48.203 0 
715 1 12.1 46.1072 0 
716 1 13.31 48.203 0 
717 1 14.52 46.1072 0 
718 1 15.73 48.203 0 
719 1 16.94 46.1072 0 
720 1 18.15 48.203 0 
721 1 19.36 46.1072 0 
722 1 20.57 48.203 0 
723 1 21.78 46.1072 0 
724 1 22.99 48.203 0 
725 1 24.2 46.1072 0 
726 1 25.41 48.203 0 
727 1 26.62 46.1072 0 
728 1 27.83 48.203 0 
729 1 29.04 46.1072 0 
730 1 30.25 48.203 0 
731 1 31.46 46.1072 0 
732 1 32.67 48.203 0 
733 1 33.88 46.1072 0 
734 1 35.09 48.203 0 
735 1 36.3 46.1072 0 
736 1 37.51 48.203 0 
737 1 38.72 46.1072 0 
738 1 39.93 48.203 0 
739 1 41.14 46.1072 0 
740 1 42.35 48.203 0 
741 1 43.56 46.1072 0 
742 1 44.77 48.203 0 
743 1 45.98 46.1072 0 
744 1 47.19 48.203 0 
745 1 48.4 46.1072 0 
746 1 49.61 48.203 0 
747 1 50.82 46.1072 0 
748 1 52.03 48.203 0 
749 1 53.24 46.1072 0 
750 1 54.45 48.203 0 
751 1 55.66 46.1072 0 
752 1 56.87 48.203 0 
753 1 58.08 46.1072 0 
754 1 59.29 48.203 0 
755 1 60.5 46.1072 0 
756 1 61.71 48.203 0 
757 1 62.92 46.1072 0 
758 1 64.13 48.203 0 
759 1 65.34 46.1072 0 
760 1 66.55 48.203 0 
761 1 67.76 46.1072 0 
762 1 68.97 48.203 0 
763 1 70.18 46.1072 0 
764 1 71.39 48.203 0 
765 1 72.6 46.1072 0 
766 1 73.81 48.203 0 
767 1 75.02 46.1072 0 
768 1 76.23 48.203 0 
769 1 0 50.2988 0 
770 1 1.21 52.3945 0 
771 1 2.42 50.2988 0 
772 1 3.63 52.3945 0 
773 1 4.84 50.2988 0 
774 1 6.05 52.3945 0 
775 1 7.26 50.2988 0 
776 1 8.47 52.3945 0 
777 1 9.68 50.2988 0 
778 1 10.89 52.3945 0 
779 1 12.1 50.2988 0 
780 1 13.31 52.3945 0 
781 1 14.52 50.2988 0 
782 1 15.73 52.3945 0 
783 1 16.94 50.2988 0 
784 1 18.15 52.3945 0 
785 1 19.36 50.2988 0 
786 1 20.57 52.3945 0 
787 1 21.78 50.2988 0 
788 1 22.99 52.3945 0 
789 1 24.2 50.2988 0 
790 1 25.41 52.3945 0 
791 1 26.62 50.2988 0 
792 1 27.83 52.3945 0 
793 1 29.04 50.2988 0 
794 1 30.25 52.3945 0 
795 1 31.46 50.2988 0 
796 1 32.67 52.3945 0 
797 1 33.88 50.2988 0 
798 1 35.09 52.3945 0 
799 1 36.3 50.2988 0 
800 1 37.51 52.3945 0 
801 1 38.72 50.2988 0 
802 1 39.93 52.3945 0 
803 1 41.14 50.2988 0 
804 1 42.35 52.3945 0 
805 1 43.56 50.2988 0 
806 1 44.77 52.3945 0 
807 1 45.98 50.2988 0 
808 1 47.19 52.3945 0 
809 1 48.4 50.2988 0 
810 1 49.61 52.3945 0 
811 1 50.82 50.2988 0 
812 1 52.03 52.3945 0 
813 1 53.24 50.2988 0 
814 1 54.45 52.3945 0 
815 1 55.66 50.2988 0 
816 1 56.87 52.3945 0 
817 1 58.08 50.2988 0 
818 1 59.29 52.3945 0 
819 1 60.5 50.2988 0 
820 1 61.71 52.3945 0 
821 1 62.92 50.2988 0 
822 1 64.13 52.3945 0 
823 1 65.34 50.2988 0 
824 1 66.55 52.3945 0 
825 1 67.76 50.2988 0 
826 1 68.97 52.3945 0 
827 1 70.18 50.2988 0 
828 1 71.39 52.3945 0 
829 1 72.6 50.2988 0 
830 1 73.81 52.3945 0 
831 1 75.02 50.2988 0 
832 1 76.23 52.3945 0 
833 1 0 54.4903 0 
834 1 1.21 56.5861 0 
835 1 2.42 54.4903 0 
836 1 3.63 56.5861 0 
837 1 4.84 54.4903 0 
838 1 6.05 56.5861 0 
839 1 7.26 54.4903 0 
840 1 8.47 56.5861 0 
841 1 9.68 54.4903 0 
842 1 10.89 56.5861 0 
843 1 12.1 54.4903 0 
844 1 13.31 56.5861 0 
845 1 14.52 54.4903 0 
846 1 15.73 56.5861 0 
847 1 16.94 54.4903 0 
848 1 18.15 56.5861 0 
849 1 19.36 54.4903 0 
850 1 20.57 56.5861 0 
851 1 21.78 54.4903 0 
852 1 22.99 56.5861 0 
853 1 24.2 54.4903 0 
854 1 25.41 56.5861 0 
855 1 26.62 54.4903 0 
856 1 27.83 56.5861 0 
857 1 29.04 54.4903 0 
858 1 30.25 56.5861 0 
859 1 31.46 54.4903 0 
860 1 32.67 56.5861 0 
861 1 33.88 54.4903 0 
862 1 35.09 56.5861 0 
863 1 36.3 54.4903 0 
864 1 37.51 56.5861 0 
865 1 38.72 54.4903 0 
866 1 39.93 56.5861 0 
867 1 41.14 54.4903 0 
868 1 42.35 56.5861 0 
869 1 43.56 54.4903 0 
870 1 44.77 56.5861 0 
871 1 45.98 54.4903 0 
872 1 47.19 56.5861 0 
873 1 48.4 54.4903 0 
874 1 49.61 56.5861 0 
875 1 50.82 54.4903 0 
876 1 52.03 56.5861 0 
877 1 53.24 54.4903 0 
878 1 54.45 56.5861 0 
879 1 55.66 54.4903 0 
880 1 56.87 56.5861 0 
881 1 58.08 54.4903 0 
882 1 59.29 56.5861 0 
883 1 60.5 54.4903 0 
884 1 61.71 56.5861 0 
885 1 62.92 54.4903 0 
886 1 64.13 56.5861 0 
887 1 65.34 54.4903 0 
888 1 66.55 56.5861 0 
889 1 67.76 54.4903 0 
890 1 68.97 56.5861 0 
891 1 70.18 54.4903 0 
892 1 71.39 56.5861 0 
893 1 72.6 54.4903 0 
894 1 73.81 56.5861 0 
895 1 75.02 54.4903 0 
896 1 76.23 56.5861 0 
897 1 0 58.6819 0 
898 1 1.21 60.7777 0 
899 1 2.42 58.6819 0 
900 1 3.63 60.7777 0 
901 1 4.84 58.6819 0 
902 1 6.05 60.7777 0 
903 1 7.26 58.6819 0 
904 1 8.47 60.7777 0 
905 1 9.68 58.6819 0 
906 1 10.89 60.7777 0 
907 1 12.1 58.6819 0 
908 1 13.31 60.7777 0 
909 1 14.52 58.6819 0 
910 1 15.73 60.7777 0 
911 1 16.94 58.6819 0 
912 1 18.15 60.7777 0 
913 1 19.36 58.6819 0 
914 1 20.57 60.7777 0 
915 1 21.78 58.6819 0 
916 1 22.99 60.7777 0 
917 1 24.2 58.6819 0 
918 1 25.41 60.7777 0 
919 1 26.62 58.6819 0 
920 1 27.83 60.7777 0 
921 1 29.04 58.6819 0 
922 1 30.25 60.7777 0 
923 1 31.46 58.6819 0 
924 1 32.67 60.7777 0 
925 1 33.88 58.6819 0 
926 1 35.09 60.7777 0 
927 1 36.3 58.6819 0 
928 1 37.51 60.7777 0 
929 1 38.72 58.6819 0 
930 1 39.93 60.7777 0 
931 1 41.14 58.6819 0 
932 1 42.35 60.7777 0 
933 1 43.56 58.6819 0 
934 1 44.77 60.7777 0 
935 1 45.98 58.6819 0 
936 1 47.19 60.7777 0 
937 1 48.4 58.6819 0 
938 1 49.61 60.7777 0 
939 1 50.82 58.6819 0 
940 1 52.03 60.7777 0 
941 1 53.24 58.6819 0 
942 1 54.45 60.7777 0 
943 1 55.66 58.6819 0 
944 1 56.87 60.7777 0 
945 1 58.08 58.6819 0 
946 1 59.29 60.7777 0 
947 1 60.5 58.6819 0 
948 1 61.71 60.7777 0 
949 1 62.92 58.6819 0 
950 1 64.13 60.7777 0 
951 1 65.34 58.6819 0 
952 1 66.55 60.7777 0 
953 1 67.76 58.6819 0 
954 1 68.97 60.7777 0 
955 1 70.18 58.6819 0 
956 1 71.39 60.7777 0 
957 1 72.6 58.6819 0 
958 1 73.81 60.7777 0 
959 1 75.02 58.6819 0 
960 1 76.23 60.7777 0 
961 1 0 62.8734 0 
962 1 1.21 64.9692 0 
963 1 2.42 62.8734 0 
964 1 3.63 64.9692 0 
965 1 4.84 62.8734 0 
966 1 6.05 64.9692 0 
967 1 7.26 62.8734 0 
968 1 8.47 64.9692 0 
969 1 9.68 62.8734 0 
970 1 10.89 64.9692 0 
971 1 12.1 62.8734 0 
972 1 13.31 64.9692 0 
973 1 14.52 62.8734 0 
974 1 15.73 64.9692 0 
975 1 16.94 62.8734 0 
976 1 18.15 64.9692 0 
977 1 19.36 62.8734 0 
978 1 20.57 64.9692 0 
979 1 21.78 62.8734 0 
980 1 22.99 64.9692 0 
981 1 24.2 62.8734 0 
982 1 25.41 64.9692 0 
983 1 26.62 62.8734 0 
984 1 27.83 64.9692 0 
985 1 29.04 62.8734 0 
986 1 30.25 64.9692 0 
987 1 31.46 62.8734 0 
988 1 32.67 64.9692 0 
989 1 33.88 62.8734 0 
990 1 35.09 64.9692 0 
991 1 36.3 62.8734 0 
992 1 37.51 64.9692 0 
993 1 38.72 62.8734 0 
994 1 39.93 64.9692 0 
995 1 41.14 62.8734 0 
996 1 42.35 64.9692 0 
997 1 43.56 62.8734 0 
998 1 44.77 64.9692 0 
999 1 45.98 62.8734 0 
1000 1 47.19 64.9692 0 
1001 1 48.4 62.8734 0 
1002 1 49.61 64.9692 0 
1003 1 50.82 62.8734 0 
1004 1 52.03 64.9692 0 
1005 1 53.24 62.8734 0 
1006 1 54.45 64.9692 0 
1007 1 55.66 62.8734 0 
1008 1 56.87 64.9692 0 
1009 1 58.08 62.8734 0 
1010 1 59.29 64.9692 0 
1011 1 60.5 62.8734 0 
1012 1 61.71 64.9692 0 
1013 1 62.92 62.8734 0 
1014 1 64.13 64.9692 0 
1015 1 65.34 62.8734 0 
1016 1 66.55 64.9692 0 
1017 1 67.76 62.8734 0 
1018 1 68.97 64.9692 0 
1019 1 70.18 62.8734 0 
1020 1 71.39 64.9692 0 
1021 1 72.6 62.8734 0 
1022 1 73.81 64.9692 0 
1023 1 75.02 62.8734 0 
1024 1 76.23 64.9692 0 
1025 1 0 67.065 0 
1026 1 1.21 69.1608 0 
1027 1 2.42 67.065 0 
1028 1 3.63 69.1608 0 
1029 1 4.84 67.065 0 
1030 1 6.05 69.1608 0 
1031 1 7.26 67.065 0 
1032 1 8.47 69.1608 0 
1033 1 9.68 67.065 0 
1034 1 10.89 69.1608 0 
1035 1 12.1 67.065 0 
1036 1 13.31 69.1608 0 
1037 1 14.52 67.065 0 
1038 1 15.73 69.1608 0 
1039 1 16.94 67.065 0 
1040 1 18.15 69.1608 0 
1041 1 19.36 67.065 0 
1042 1 20.57 69.1608 0 
1043 1 21.78 67.065 0 
1044 1 22.99 69.1608 0 
1045 1 24.2 67.065 0 
1046 1 25.41 69.1608 0 
1047 1 26.62 67.065 0 
1048 1 27.83 69.1608 0 
1049 1 29.04 67.065 0 
1050 1 30.25 69.1608 0 
1051 1 31.46 67.065 0 
1052 1 32.67 69.1608 0 
1053 1 33.88 67.065 0 
1054 1 35.09 69.1608 0 
1055 1 36.3 67.065 0 
1056 1 37.51 69.1608 0 
1057 1 38.72 67.065 0 
1058 1 39.93 69.1608 0 
1059 1 41.14 67.065 0 
1060 1 42.35 69.1608 0 
1061 1 43.56 67.065 0 
1062 1 44.77 69.1608 0 
1063 1 45.98 67.065 0 
1064 1 47.19 69.1608 0 
1065 1 48.4 67.065 0 
1066 1 49.61 69.1608 0 
1067 1 50.82 67.065 0 
1068 1 52.03 69.1608 0 
1069 1 53.24 67.065 0 
1070 1 54.45 69.1608 0 
1071 1 55.66 67.065 0 
1072 1 56.87 69.1608 0 
1073 1 58.08 67.065 0 
1074 1 59.29 69.1608 0 
1075 1 60.5 67.065 0 
1076 1 61.71 69.1608 0 
1077 1 62.92 67.065 0 
1078 1 64.13 69.1608 0 
1079 1 65.34 67.065 0 
1080 1 66.55 69.1608 0 
1081 1 67.76 67.065 0 
1082 1 68.97 69.1608 0 
1083 1 70.18 67.065 0 
1084 1 71.39 69.1608 0 
1085 1 72.6 67.065 0 
1086 1 73.81 69.1608 0 
1087 1 75.02 67.065 0 
1088 1 76.23 69.1608 0 
1089 1 0 71.2566 0 
1090 1 1.21 73.3524 0 
1091 1 2.42 71.2566 0 
1092 1 3.63 73.3524 0 
1093 1 4.84 71.2566 0 
1094 1 6.05 73.3524 0 
1095 1 7.26 71.2566 0 
1096 1 8.47 73.3524 0 
1097 1 9.68 71.2566 0 
1098 1 10.89 73.3524 0 
1099 1 12.1 71.2566 0 
1100 1 13.31 73.3524 0 
1101 1 14.52 71.2566 0 
1102 1 15.73 73.3524 0 
1103 1 16.94 71.2566 0 
1104 1 18.15 73.3524 0 
1105 1 19.36 71.2566 0 
1106 1 20.57 73.3524 0 
1107 1 21.78 71.2566 0 
1108 1 22.99 73.3524 0 
1109 1 24.2 71.2566 0 
1110 1 25.41 73.3524 0 
1111 1 26.62 71.2566 0 
1112 1 27.83 73.3524 0 
1113 1 29.04 71.2566 0 
1114 1 30.25 73.3524 0 
1115 1 31.46 71.2566 0 
1116 1 32.67 73.3524 0 
1117 1 33.88 71.2566 0 
1118 1 35.09 73.3524 0 
1119 1 36.3 71.2566 0 
1120 1 37.51 73.3524 0 
1121 1 38.72 71.2566 0 
1122 1 39.93 73.3524 0 
1123 1 41.14 71.2566 0 
1124 1 42.35 73.3524 0 
1125 1 43.56 71.2566 0 
1126 1 44.77 73.3524 0 
1127 1 45.98 71.2566 0 
1128 1 47.19 73.3524 0 
1129 1 48.4 71.2566 0 
1130 1 49.61 73.3524 0 
1131 1 50.82 71.2566 0 
1132 1 52.03 73.3524 0 
1133 1 53.24 71.2566 0 
1134 1 54.45 73.3524 0 
1135 1 55.66 71.2566 0 
1136 1 56.87 73.3524 0 
1137 1 58.08 71.2566 0 
1138 1 59.29 73.3524 0 
1139 1 60.5 71.2566 0 
1140 1 61.71 73.3524 0 
1141 1 62.92 71.2566 0 
1142 1 64.13 73.3524 0 
1143 1 65.34 71.2566 0 
1144 1 66.55 73.3524 0 
1145 1 67.76 71.2566 0 
1146 1 68.97 73.3524 0 
1147 1 70.18 71.2566 0 
1148 1 71.39 73.3524 0 
1149 1 72.6 71.2566 0 
1150 1 73.81 73.3524 0 
1151 1 75.02 71.2566 0 
1152 1 76.23 73.3524 0 
1153 1 0 75.4481 0 
1154 1 1.21 77.5439 0 
1155 1 2.42 75.4481 0 
1156 1 3.63 77.5439 0 
1157 1 4.84 75.4481 0 
1158 1 6.05 77.5439 0 
1159 1 7.26 75.4481 0 
1160 1 8.47 77.5439 0 
1161 1 9.68 75.4481 0 
1162 1 10.89 77.5439 0 
1163 1 12.1 75.4481 0 
1164 1 13.31 77.5439 0 
1165 1 14.52 75.4481 0 
1166 1 15.73 77.5439 0 
1167 1 16.94 75.4481 0 
1168 1 18.15 77.5439 0 
1169 1 19.36 75.4481 0 
1170 1 20.57 77.5439 0 
1171 1 21.78 75.4481 0 
1172 1 22.99 77.5439 0 
1173 1 24.2 75.4481 0 
1174 1 25.41 77.5439 0 
1175 1 26.62 75.4481 0 
1176 1 27.83 77.5439 0 
1177 1 29.04 75.4481 0 
1178 1 30.25 77.5439 0 
1179 1 31.46 75.4481 0 
1180 1 32.67 77.5439 0 
1181 1 33.88 75.4481 0 
1182 1 35.09 77.5439 0 
1183 1 36.3 75.4481 0 
1184 1 37.51 77.5439 0 
1185 1 38.72 75.4481 0 
1186 1 39.93 77.5439 0 
1187 1 41.14 75.4481 0 
1188 1 42.35 77.5439 0 
1189 1 43.56 75.4481 0 
1190 1 44.77 77.5439 0 
1191 1 45.98 75.4481 0 
1192 1 47.19 77.5439 0 
1193 1 48.4 75.4481 0 
1194 1 49.61 77.5439 0 
1195 1 50.82 75.4481 0 
1196 1 52.03 77.5439 0 
1197 1 53.24 75.4481 0 
1198 1 54.45 77.5439 0 
1199 1 55.66 75.4481 0 
1200 1 56.87 77.5439 0 
1201 1 58.08 75.4481 0 
1202 1 59.29 77.5439 0 
1203 1 60.5 75.4481 0 
1204 1 61.71 77.5439 0 
1205 1 62.92 75.4481 0 
1206 1 64.13 77.5439 0 
1207 1 65.34 75.4481 0 
1208 1 66.55 77.5439 0 
1209 1 67.76 75.4481 0 
1210 1 68.97 77.5439 0 
1211 1 70.18 75.4481 0 
1212 1 71.39 77.5439 0 
1213 1 72.6 75.4481 0 
1214 1 73.81 77.5439 0 
1215 1 75.02 75.4481 0 
1216 1 76.23 77.5439 0 
1217 1 0 79.6397 0 
1218 1 1.21 81.7355 0 
1219 1 2.42 79.6397 0 
1220 1 3.63 81.7355 0 
1221 1 4.84 79.6397 0 
1222 1 6.05 81.7355 0 
1223 1 7.26 79.6397 0 
1224 1 8.47 81.7355 0 
1225 1 9.68 79.6397 0 
1226 1 10.89 81.7355 0 
1227 1 12.1 79.6397 0 
1228 1 13.31 81.7355 0 
1229 1 14.52 79.6397 0 
1230 1 15.73 81.7355 0 
1231 1 16.94 79.6397 0 
1232 1 18.15 81.7355 0 
1233 1 19.36 79.6397 0 
1234 1 20.57 81.7355 0 
1235 1 21.78 79.6397 0 
1236 1 22.99 81.7355 0 
1237 1 24.2 79.6397 0 
1238 1 25.41 81.7355 0 
1239 1 26.62 79.6397 0 
1240 1 27.83 81.7355 0 
1241 1 29.04 79.6397 0 
1242 1 30.25 81.7355 0 
1243 1 31.46 79.6397 0 
1244 1 32.67 81.7355 0 
1245 1 33.88 79.6397 0 
1246 1 35.09 81.7355 0 
1247 1 36.3 79.6397 0 
1248 1 37.51 81.7355 0 
1249 1 38.72 79.6397 0 
1250 1 39.93 81.7355 0 
1251 1 41.14 79.6397 0 
1252 1 42.35 81.7355 0 
1253 1 43.56 79.6397 0 
1254 1 44.77 81.7355 0 
1255 1 45.98 79.6397 0 
1256 1 47.19 81.7355 0 
1257 1 48.4 79.6397 0 
1258 1 49.61 81.7355 0 
1259 1 50.82 79.6397 0 
1260 1 52.03 81.7355 0 
1261 1 53.24 79.6397 0 
1262 1 54.45 81.7355 0 
1263 1 55.66 79.6397 0 
1264 1 56.87 81.7355 0 
1265 1 58.08 79.6397 0 
1266 1 59.29 81.7355 0 
1267 1 60.5 79.6397 0 
1268 1 61.71 81.7355 0 
1269 1 62.92 79.6397 0 
1270 1 64.13 81.7355 0 
1271 1 65.34 79.6397 0 
1272 1 66.55 81.7355 0 
1273 1 67.76 79.6397 0 
1274 1 68.97 81.7355 0 
1275 1 70.18 79.6397 0 
1276 1 71.39 81.7355 0 
1277 1 72.6 79.6397 0 
1278 1 73.81 81.7355 0 
1279 1 75.02 79.6397 0 
1280 1 76.23 81.7355 0 
1281 1 0 83.8313 0 
1282 1 1.21 85.927 0 
1283 1 2.42 83.8313 0 
1284 1 3.63 85.927 0 
1285 1 4.84 83.8313 0 
1286 1 6.05 85.927 0 
1287 1 7.26 83.8313 0 
1288 1 8.47 85.927 0 
1289 1 9.68 83.8313 0 
1290 1 10.89 85.927 0 
1291 1 12.1 83.8313 0 
1292 1 13.31 85.927 0 
1293 1 14.52 83.8313 0 
1294 1 15.73 85.927 0 
1295 1 16.94 83.8313 0 
1296 1 18.15 85.927 0 
1297 1 19.36 83.8313 0 
1298 1 20.57 85.927 0 
1299 1 21.78 83.8313 0 
1300 1 22.99 85.927 0 
1301 1 24.2 83.8313 0 
1302 1 25.41 85.927 0 
1303 1 26.62 83.8313 0 
1304 1 27.83 85.927 0 
1305 1 29.04 83.8313 0 
1306 1 30.25 85.927 0 
1307 1 31.46 83.8313 0 
1308 1 32.67 85.927 0 
1309 1 33.88 83.8313 0 
1310 1 35.09 85.927 0 
1311 1 36.3 83.8313 0 
1312 1 37.51 85.927 0 
1313 1 38.72 83.8313 0 
1314 1 39.93 85.927 0 
1315 1 41.14 83.8313 0 
1316 1 42.35 85.927 0 
1317 1 43.56 83.8313 0 
1318 1 44.77 85.927 0 
1319 1 45.98 83.8313 0 
1320 1 47.19 85.927 0 
1321 1 48.4 83.8313 0 
1322 1 49.61 85.927 0 
1323 1 50.82 83.8313 0 
1324 1 52.03 85.927 0 
1325 1 53.24 83.8313 0 
1326 1 54.45 85.927 0 
1327 1 55.66 83.8313 0 
1328 1 56.87 85.927 0 
1329 1 58.08 83.8313 0 
1330 1 59.29 85.927 0 
1331 1 60.5 83.8313 0 
1332 1 61.71 85.927 0 
1333 1 62.92 83.8313 0 
1334 1 64.13 85.927 0 
1335 1 65.34 83.8313 0 
1336 1 66.55 85.927 0 
1337 1 67.76 83.8313 0 
1338 1 68.97 85.927 0 
1339 1 70.18 83.8313 0 
1340 1 71.39 85.927 0 
1341 1 72.6 83.8313 0 
1342 1 73.81 85.927 0 
1343 1 75.02 83.8313 0 
1344 1 76.23 85.927 0 
1345 1 0 88.0228 0 
1346 1 1.21 90.1186 0 
1347 1 2.42 88.0228 0 
1348 1 3.63 90.1186 0 
1349 1 4.84 88.0228 0 
1350 1 6.05 90.1186 0 
1351 1 7.26 88.0228 0 
1352 1 8.47 90.1186 0 
1353 1 9.68 88.0228 0 
1354 1 10.89 90.1186 0 
1355 1 12.1 88.0228 0 
1356 1 13.31 90.1186 0 
1357 1 14.52 88.0228 0 
1358 1 15.73 90.1186 0 
1359 1 16.94 88.0228 0 
1360 1 18.15 90.1186 0 
1361 1 19.36 88.0228 0 
1362 1 20.57 90.1186 0 
1363 1 21.78 88.0228 0 
1364 1 22.99 90.1186 0 
1365 1 24.2 88.0228 0 
1366 1 25.41 90.1186 0 
1367 1 26.62 88.0228 0 
1368 1 27.83 90.1186 0 
1369 1 29.04 88.0228 0 
1370 1 30.25 90.1186 0 
1371 1 31.46 88.0228 0 
1372 1 32.67 90.1186 0 
1373 1 33.88 88.0228 0 
1374 1 35.09 90.1186 0 
1375 1 36.3 88.0228 0 
1376 1 37.51 90.1186 0 
1377 1 38.72 88.0228 0 
1378 1 39.93 90.1186 0 
1379 1 41.14 88.0228 0 
1380 1 42.35 90.1186 0 
1381 1 43.56 88.0228 0 
1382 1 44.77 90.1186 0 
1383 1 45.98 88.0228 0 
1384 1 47.19 90.1186 0 
1385 1 48.4 88.0228 0 
1386 1 49.61 90.1186 0 
1387 1 50.82 88.0228 0 
1388 1 52.03 90.1186 0 
1389 1 53.24 88.0228 0 
1390 1 54.45 90.1186 0 
1391 1 55.66 88.0228 0 
1392 1 56.87 90.1186 0 
1393 1 58.08 88.0228 0 
1394 1 59.29 90.1186 0 
1395 1 60.5 88.0228 0 
1396 1 61.71 90.1186 0 
1397 1 62.92 88.0228 0 
1398 1 64.13 90.1186 0 
1399 1 65.34 88.0228 0 
1400 1 66.55 90.1186 0 
1401 1 67.76 88.0228 0 
1402 1 68.97 90.1186 0 
1403 1 70.18 88.0228 0 
1404 1 71.39 90.1186 0 
1405 1 72.6 88.0228 0 
1406 1 73.81 90.1186 0 
1407 1 75.02 88.0228 0 
1408 1 76.23 90.1186 0 
1409 1 0 92.2144 0 
1410 1 1.21 94.3102 0 
1411 1 2.42 92.2144 0 
1412 1 3.63 94.3102 0 
1413 1 4.84 92.2144 0 
1414 1 6.05 94.3102 0 
1415 1 7.26 92.2144 0 
1416 1 8.47 94.3102 0 
1417 1 9.68 92.2144 0 
1418 1 10.89 94.3102 0 
1419 1 12.1 92.2144 0 
1420 1 13.31 94.3102 0 
1421 1 14.52 92.2144 0 
1422 1 15.73 94.3102 0 
1423 1 16.94 92.2144 0 
1424 1 18.15 94.3102 0 
1425 1 19.36 92.2144 0 
1426 1 20.57 94.3102 0 
1427 1 21.78 92.2144 0 
1428 1 22.99 94.3102 0 
1429 1 24.2 92.2144 0 
1430 1 25.41 94.3102 0 
1431 1 26.62 92.2144 0 
1432 1 27.83 94.3102 0 
1433 1 29.04 92.2144 0 
1434 1 30.25 94.3102 0 
1435 1 31.46 92.2144 0 
1436 1 32.67 94.3102 0 
1437 1 33.88 92.2144 0 
1438 1 35.09 94.3102 0 
1439 1 36.3 92.2144 0 
1440 1 37.51 94.3102 0 
1441 1 38.72 92.2144 0 
1442 1 39.93 94.3102 0 
1443 1 41.14 92.2144 0 
1444 1 42.35 94.3102 0 
1445 1 43.56 92.2144 0 
1446 1 44.77 94.3102 0 
1447 1 45.98 92.2144 0 
1448 1 47.19 94.3102 0 
1449 1 48.4 92.2144 0 
1450 1 49.61 94.3102 0 
1451 1 50.82 92.2144 0 
1452 1 52.03 94.3102 0 
1453 1 53.24 92.2144 0 
1454 1 54.45 94.3102 0 
1455 1 55.66 92.2144 0 
1456 1 56.87 94.3102 0 
1457 1 58.08 92.2144 0 
1458 1 59.29 94.3102 0 
1459 1 60.5 92.2144 0 
1460 1 61.71 94.3102 0 
1461 1 62.92 92.2144 0 
1462 1 64.13 94.3102 0 
1463 1 65.34 92.2144 0 
1464 1 66.55 94.3102 0 
1465 1 67.76 92.2144 0 
1466 1 68.97 94.3102 0 
1467 1 70.18 92.2144 0 
1468 1 71.39 94.3102 0 
1469 1 72.6 92.2144 0 
1470 1 73.81 94.3102 0 
1471 1 75.02 92.2144 0 
1472 1 76.23 94.3102 0 
1473 3 0 96.4059 0 
1474 3 1.21 98.5017 0 
1475 3 2.42 96.4059 0 
1476 3 3.63 98.5017 0 
1477 3 4.84 96.4059 0 
1478 3 6.05 98.5017 0 
1479 3 7.26 96.4059 0 
1480 3 8.47 98.5017 0 
1481 3 9.68 96.4059 0 
1482 3 10.89 98.5017 0 
1483 3 12.1 96.4059 0 
1484 3 13.31 98.5017 0 
1485 3 14.52 96.4059 0 
1486 3 15.73 98.5017 0 
1487 3 16.94 96.4059 0 
1488 3 18.15 98.5017 0 
1489 3 19.36 96.4059 0 
1490 3 20.57 98.5017 0 
1491 3 21.78 96.4059 0 
1492 3 22.99 98.5017 0 
1493 3 24.2 96.4059 0 
1494 3 25.41 98.5017 0 
1495 3 26.62 96.4059 0 
1496 3 27.83 98.5017 0 
1497 3 29.04 96.4059 0 
1498 3 30.25 98.5017 0 
1499 3 31.46 96.4059 0 
1500 3 32.67 98.5017 0 
1501 3 33.88 96.4059 0 
1502 3 35.09 98.5017 0 
1503 3 36.3 96.4059 0 
1504 3 37.51 98.5017 0 
1505 3 38.72 96.4059 0 
1506 3 39.93 98.5017 0 
1507 3 41.14 96.4059 0 
1508 3 42.35 98.5017 0 
1509 3 43.56 96.4059 0 
1510 3 44.77 98.5017 0 
1511 3 45.98 96.4059 0 
1512 3 47.19 98.5017 0 
1513 3 48.4 96.4059 0 
1514 3 49.61 98.5017 0 
1515 3 50.82 96.4059 0 
1516 3 52.03 98.5017 0 
1517 3 53.24 96.4059 0 
1518 3 54.45 98.5017 0 
1519 3 55.66 96.4059 0 
1520 3 56.87 98.5017 0 
1521 3 58.08 96.4059 0 
1522 3 59.29 98.5017 0 
1523 3 60.5 96.4059 0 
1524 3 61.71 98.5017 0 
1525 3 62.92 96.4059 0 
1526 3 64.13 98.5017 0 
1527 3 65.34 96.4059 0 
1528 3 66.55 98.5017 0 
1529 3 67.76 96.4059 0 
1530 3 68.97 98.5017 0 
1531 3 70.18 96.4059 0 
1532 3 71.39 98.5017 0 
1533 3 72.6 96.4059 0 
1534 3 73.81 98.5017 0 
1535 3 75.02 96.4059 0 
1536 3 76.23 98.5017 0 
ITEM: TIMESTEP
9 1.80017e+11
ITEM: NUMBER OF ATOMS
1536
ITEM: BOX BOUNDS
0 77.44
0 100.598
-1.21 1.21
ITEM: ATOMS id type x y z
1 2 0 0 0 
2 2 1.21 2.09578 0 
3 2 2.42 0 0 
4 2 3.63 2.09578 0 
5 2 4.84 0 0 
6 2 6.05 2.09578 0 
7 2 7.26 0 0 
8 2 8.47 2.09578 0 
9 2 9.68 0 0 
10 2 10.89 2.09578 0 
11 2 12.1 0 0 
12 2 13.31 2.09578 0 
13 2 14.52 0 0 
14 2 15.73 2.09578 0 
15 2 16.94 0 0 
16 2 18.15 2.09578 0 
17 2 19.36 0 0 
18 2 20.57 2.09578 0 
19 2 21.78 0 0 
20 2 22.99 2.09578 0 
21 2 24.2 0 0 
22 2 25.41 2.09578 0 
23 2 26.62 0 0 
24 2 27.83 2.09578 0 
25 2 29.04 0 0 
26 2 30.25 2.09578 0 
27 2 31.46 0 0 
28 2 32.67 2.09578 0 
29 2 33.88 0 0 
30 2 35.09 2.09578 0 
31 2 36.3 0 0 
32 2 37.51 2.09578 0 
33 2 38.72 0 0 
34 2 39.93 2.09578 0 
35 2 41.14 0 0 
36 2 42.35 2.09578 0 
37 2 43.56 0 0 
38 2 44.77 2.09578 0 
39 2 45.98 0 0 
40 2 47.19 2.09578 0 
41 2 48.4 0 0 
42 2 49.61 2.09578 0 
43 2 50.82 0 0 
44 2 52.03 2.09578 0 
45 2 53.24 0 0 
46 2 54.45 2.09578 0 
47 2 55.66 0 0 
48 2 56.87 2.09578 0 
49 2 58.08 0 0 
50 2 59.29 2.09578 0 
51 2 60.5 0 0 
52 2 61.71 2.09578 0 
53 2 62.92 0 0 
54 2 64.13 2.09578 0 
55 2 65.34 0 0 
56 2 66.55 2.09578 0 
57 2 67.76 0 0 
58 2 68.97 2.09578 0 
59 2 70.18 0 0 
60 2 71.39 2.09578 0 
61 2 72.6 0 0 
62 2 73.81 2.09578 0 
63 2 75.02 0 0 
64 2 76.23 2.09578 0 
65 2 0 4.19156 0 
66 2 1.21 6.28734 0 
67 2 2.42 4.19156 0 
68 2 3.63 6.28734 0 
69 2 4.84 4.19156 0 
70 2 6.05 6.28734 0 
71 2 7.26 4.19156 0 
72 2 8.47 6.28734 0 
73 2 9.68 4.19156 0 
74 2 10.89 6.28734 0 
75 2 12.1 4.19156 0 
76 2 13.31 6.28734 0 
77 2 14.52 4.19156 0 
78 2 15.73 6.28734 0 
79 2 16.94 4.19156 0 
80 2 18.15 6.28734 0 
81 2 19.36 4.19156 0 
82 2 20.57 6.28734 0 
83 2 21.78 4.19156 0 
84 2 22.99 6.28734 0 
85 2 24.2 4.19156 0 
86 2 25.41 6.28734 0 
87 2 26.62 4.19156 0 
88 2 27.83 6.28734 0 
89 2 29.04 4.19156 0 
90 2 30.25 6.28734 0 
91 2 31.46 4.19156 0 
92 2 32.67 6.28734 0 
93 2 33.88 4.19156 0 
94 2 35.09 6.28734 0 
95 2 36.3 4.19156 0 
96 2 37.51 6.28734 0 
97 2 38.72 4.19156 0 
98 2 39.93 6.28734 0 
99 2 41.14 4.19156 0 
100 2 42.35 6.28734 0 
101 2 43.56 4.19156 0 
102 2 44.77 6.28734 0 
103 2 45.98 4.19156 0 
104 2 47.19 6.28734 0 
105 2 48.4 4.19156 0 
106 2 49.61 6.28734 0 
107 2 50.82 4.19156 0 
108 2 52.03 6.28734 0 
109 2 53.24 4.19156 0 
110 2 54.45 6.28734 0 
111 2 55.66 4.19156 0 
112 2 56.87 6.28734 0 
113 2 58.08 4.19156 0 
114 2 59.29 6.28734 0 
115 2 60.5 4.19156 0 
116 2 61.71 6.28734 0 
117 2 62.92 4.19156 0 
118 1 64.13 6.28734 0 
119 2 65.34 4.19156 0 
120 2 66.55 6.28734 0 
121 2 67.76 4.19156 0 
122 2 68.97 6.28734 0 
123 2 70.18 4.19156 0 
124 2 71.39 6.28734 0 
125 2 72.6 4.19156 0 
126 2 73.81 6.28734 0 
127 2 75.02 4.19156 0 
128 2 76.23 6.28734 0 
129 2 0 8.38313 0 
130 2 1.21 10.4789 0 
131 2 2.42 8.38313 0 
132 1 3.63 10.4789 0 
133 2 4.84 8.38313 0 
134 2 6.05 10.4789 0 
135 2 7.26 8.38313 0 
136 2 8.47 10.4789 0 
137 2 9.68 8.38313 0 
138 2 10.89 10.4789 0 
139 2 12.1 8.38313 0 
140 2 13.31 10.4789 0 
141 2 14.52 8.38313 0 
142 2 15.73 10.4789 0 
143 2 16.94 8.38313 0 
144 2 18.15 10.4789 0 
145 2 19.36 8.38313 0 
146 2 20.57 10.4789 0 
147 2 21.78 8.38313 0 
148 2 22.99 10.4789 0 
149 2 24.2 8.38313 0 
150 2 25.41 10.4789 0 
151 2 26.62 8.38313 0 
152 2 27.83 10.4789 0 
153 2 29.04 8.38313 0 
154 2 30.25 10.4789 0 
155 2 31.46 8.38313 0 
156 2 32.67 10.4789 0 
157 2 33.88 8.38313 0 
158 2 35.09 10.4789 0 
159 2 36.3 8.38313 0 
160 2 37.51 10.4789 0 
161 2 38.72 8.38313 0 
162 2 39.93 10.4789 0 
163 2 41.14 8.38313 0 
164 2 42.35 10.4789 0 
165 2 43.56 8.38313 0 
166 2 44.77 10.4789 0 
167 2 45.98 8.38313 0 
168 2 47.19 10.4789 0 
169 2 48.4 8.38313 0 
170 2 49.61 10.4789 0 
171 2 50.82 8.38313 0 
172 2 52.03 10.4789 0 
173 2 53.24 8.38313 0 
174 2 54.45 10.4789 0 
175 2 55.66 8.38313 0 
176 2 56.87 10.4789 0 
177 2 58.08 8.38313 0 
178 2 59.29 10.4789 0 
179 2 60.5 8.38313 0 
180 2 61.71 10.4789 0 
181 1 62.92 8.38313 0 
182 2 64.13 10.4789 0 
183 2 65.34 8.38313 0 
184 2 66.55 10.4789 0 
185 2 67.76 8.38313 0 
186 2 68.97 10.4789 0 
187 2 70.18 8.38313 0 
188 2 71.39 10.4789 0 
189 2 72.6 8.38313 0 
190 2 73.81 10.4789 0 
191 2 75.02 8.38313 0 
192 2 76.23 10.4789 0 
193 2 0 12.5747 0 
194 2 1.21 14.6705 0 
195 2 2.42 12.5747 0 
196 2 3.63 14.6705 0 
197 1 4.84 12.5747 0 
198 1 6.05 14.6705 0 
199 2 7.26 12.5747 0 
200 2 8.47 14.6705 0 
201 2 9.68 12.5747 0 
202 2 10.89 14.6705 0 
203 2 12.1 12.5747 0 
204 2 13.31 14.6705 0 
205 2 14.52 12.5747 0 
206 2 15.73 14.6705 0 
207 2 16.94 12.5747 0 
208 2 18.15 14.6705 0 
209 2 19.36 12.5747 0 
210 2 20.57 14.6705 0 
211 2 21.78 12.5747 0 
212 2 22.99 14.6705 0 
213 2 24.2 12.5747 0 
214 2 25.41 14.6705 0 
215 2 26.62 12.5747 0 
216 2 27.83 14.6705 0 
217 2 29.04 12.5747 0 
218 2 30.25 14.6705 0 
219 2 31.46 12.5747 0 
220 2 32.67 14.6705 0 
221 2 33.88 12.5747 0 
222 2 35.09 14.6705 0 
223 2 36.3 12.5747 0 
224 2 37.51 14.6705 0 
225 2 38.72 12.5747 0 
226 2 39.93 14.6705 0 
227 2 41.14 12.5747 0 
228 2 42.35 14.6705 0 
229 2 43.56 12.5747 0 
230 2 44.77 14.6705 0 
231 2 45.98 12.5747 0 
232 2 47.19 14.6705 0 
233 2 48.4 12.5747 0 
234 2 49.61 14.6705 0 
235 2 50.82 12.5747 0 
236 2 52.03 14.6705 0 
237 2 53.24 12.5747 0 
238 2 54.45 14.6705 0 
239 2 55.66 12.5747 0 
240 2 56.87 14.6705 0 
241 2 58.08 12.5747 0 
242 2 59.29 14.6705 0 
243 2 60.5 12.5747 0 
244 1 61.71 14.6705 0 
245 1 62.92 12.5747 0 
246 1 64.13 14.6705 0 
247 2 65.34 12.5747 0 
248 2 66.55 14.6705 0 
249 2 67.76 12.5747 0 
250 2 68.97 14.6705 0 
251 2 70.18 12.5747 0 
252 2 71.39 14.6705 0 
253 2 72.6 12.5747 0 
254 2 73.81 14.6705 0 
255 2 75.02 12.5747 0 
256 2 76.23 14.6705 0 
257 2 0 16.7663 0 
258 2 1.21 18.862 0 
259 2 2.42 16.7663 0 
260 2 3.63 18.862 0 
261 1 4.84 16.7663 0 
262 1 6.05 18.862 0 
263 1 7.26 16.7663 0 
264 1 8.47 18.862 0 
265 2 9.68 16.7663 0 
266 1 10.89 18.862 0 
267 2 12.1 16.7663 0 
268 2 13.31 18.862 0 
269 2 14.52 16.7663 0 
270 2 15.73 18.862 0 
271 2 16.94 16.7663 0 
272 2 18.15 18.862 0 
273 2 19.36 16.7663 0 
274 2 20.57 18.862 0 
275 2 21.78 16.7663 0 
276 2 22.99 18.862 0 
277 2 24.2 16.7663 0 
278 2 25.41 18.862 0 
279 2 26.62 16.7663 0 
280 2 27.83 18.862 0 
281 2 29.04 16.7663 0 
282 2 30.25 18.862 0 
283 2 31.46 16.7663 0 
284 2 32.67 18.862 0 
285 2 33.88 16.7663 0 
286 2 35.09 18.862 0 
287 2 36.3 16.7663 0 
288 2 37.51 18.862 0 
289 2 38.72 16.7663 0 
290 2 39.93 18.862 0 
291 2 41.14 16.7663 0 
292 2 42.35 18.862 0 
293 2 43.56 16.7663 0 
294 2 44.77 18.862 0 
295 2 45.98 16.7663 0 
296 2 47.19 18.862 0 
297 2 48.4 16.7663 0 
298 1 49.61 18.862 0 
299 2 50.82 16.7663 0 
300 1 52.03 18.862 0 
301 2 53.24 16.7663 0 
302 1 54.45 18.862 0 
303 2 55.66 16.7663 0 
304 1 56.87 18.862 0 
305 1 58.08 16.7663 0 
306 1 59.29 18.862 0 
307 1 60.5 16.7663 0 
308 1 61.71 18.862 0 
309 1 62.92 16.7663 0 
310 2 64.13 18.862 0 
311 2 65.34 16.7663 0 
312 2 66.55 18.862 0 
313 2 67.76 16.7663 0 
314 2 68.97 18.862 0 
315 2 70.18 16.7663 0 
316 2 71.39 18.862 0 
317 2 72.6 16.7663 0 
318 2 73.81 18.862 0 
319 2 75.02 16.7663 0 
320 2 76.23 18.862 0 
321 2 0 20.9578 0 
322 2 1.21 23.0536 0 
323 2 2.42 20.9578 0 
324 2 3.63 23.0536 0 
325 2 4.84 20.9578 0 
326 2 6.05 23.0536 0 
327 1 7.26 20.9578 0 
328 1 8.47 23.0536 0 
329 1 9.68 20.9578 0 
330 1 10.89 23.0536 0 
331 1 12.1 20.9578 0 
332 1 13.31 23.0536 0 
333 2 14.52 20.9578 0 
334 2 15.73 23.0536 0 
335 2 16.94 20.9578 0 
336 2 18.15 23.0536 0 
337 2 19.36 20.9578 0 
338 2 20.57 23.0536 0 
339 2 21.78 20.9578 0 
340 2 22.99 23.0536 0 
341 2 24.2 20.9578 0 
342 2 25.41 23.0536 0 
343 2 26.62 20.9578 0 
344 2 27.83 23.0536 0 
345 2 29.04 20.9578 0 
346 2 30.25 23.0536 0 
347 2 31.46 20.9578 0 
348 2 32.67 23.0536 0 
349 2 33.88 20.9578 0 
350 2 35.09 23.0536 0 
351 2 36.3 20.9578 0 
352 2 37.51 23.0536 0 
353 2 38.72 20.9578 0 
354 2 39.93 23.0536 0 
355 2 41.14 20.9578 0 
356 2 42.35 23.0536 0 
357 2 43.56 20.9578 0 
358 2 44.77 23.0536 0 
359 2 45.98 20.9578 0 
360 2 47.19 23.0536 0 
361 2 48.4 20.9578 0 
362 2 49.61 23.0536 0 
363 1 50.82 20.9578 0 
364 1 52.03 23.0536 0 
365 1 53.24 20.9578 0 
366 1 54.45 23.0536 0 
367 1 55.66 20.9578 0 
368 1 56.87 23.0536 0 
369 1 58.08 20.9578 0 
370 1 59.29 23.0536 0 
371 1 60.5 20.9578 0 
372 1 61.71 23.0536 0 
373 1 62.92 20.9578 0 
374 2 64.13 23.0536 0 
375 2 65.34 20.9578 0 
376 2 66.55 23.0536 0 
377 2 67.76 20.9578 0 
378 2 68.97 23.0536 0 
379 2 70.18 20.9578 0 
380 2 71.39 23.0536 0 
381 2 72.6 20.9578 0 
382 2 73.81 23.0536 0 
383 2 75.02 20.9578 0 
384 2 76.23 23.0536 0 
385 2 0 25.1494 0 
386 2 1.21 27.2452 0 
387 2 2.42 25.1494 0 
388 2 3.63 27.2452 0 
389 2 4.84 25.1494 0 
390 1 6.05 27.2452 0 
391 1 7.26 25.1494 0 
392 1 8.47 27.2452 0 
393 1 9.68 25.1494 0 
394 1 10.89 27.2452 0 
395 1 12.1 25.1494 0 
396 1 13.31 27.2452 0 
397 1 14.52 25.1494 0 
398 1 15.73 27.2452 0 
399 1 16.94 25.1494 0 
400 1 18.15 27.2452 0 
401 2 19.36 25.1494 0 
402 1 20.57 27.2452 0 
403 2 21.78 25.1494 0 
404 2 22.99 27.2452 0 
405 2 24.2 25.1494 0 
406 2 25.41 27.2452 0 
407 2 26.62 25.1494 0 
408 2 27.83 27.2452 0 
409 2 29.04 25.1494 0 
410 2 30.25 27.2452 0 
411 2 31.46 25.1494 0 
412 2 32.67 27.2452 0 
413 2 33.88 25.1494 0 
414 2 35.09 27.2452 0 
415 2 36.3 25.1494 0 
416 1 37.51 27.2452 0 
417 2 38.72 25.1494 0 
418 1 39.93 27.2452 0 
419 1 41.14 25.1494 0 
420 2 42.35 27.2452 0 
421 2 43.56 25.1494 0 
422 2 44.77 27.2452 0 
423 2 45.98 25.1494 0 
424 2 47.19 27.2452 0 
425 2 48.4 25.1494 0 
426 2 49.61 27.2452 0 
427 2 50.82 25.1494 0 
428 2 52.03 27.2452 0 
429 1 53.24 25.1494 0 
430 1 54.45 27.2452 0 
431 1 55.66 25.1494 0 
432 1 56.87 27.2452 0 
433 1 58.08 25.1494 0 
434 1 59.29 27.2452 0 
435 1 60.5 25.1494 0 
436 1 61.71 27.2452 0 
437 1 62.92 25.1494 0 
438 1 64.13 27.2452 0 
439 1 65.34 25.1494 0 
440 1 66.55 27.2452 0 
441 2 67.76 25.1494 0 
442 2 68.97 27.2452 0 
443 2 70.18 25.1494 0 
444 2 71.39 27.2452 0 
445 2 72.6 25.1494 0 
446 2 73.81 27.2452 0 
447 2 75.02 25.1494 0 
448 2 76.23 27.2452 0 
449 2 0 29.3409 0 
450 2 1.21 31.4367 0 
451 2 2.42 29.3409 0 
452 2 3.63 31.4367 0 
453 1 4.84 29.3409 0 
454 1 6.05 31.4367 0 
455 1 7.26 29.3409 0 
456 1 8.47 31.4367 0 
457 1 9.68 29.3409 0 
458 1 10.89 31.4367 0 
459 1 12.1 29.3409 0 
460 1 13.31 31.4367 0 
461 1 14.52 29.3409 0 
462 1 15.73 31.4367 0 
463 1 16.94 29.3409 0 
464 1 18.15 31.4367 0 
465 1 19.36 29.3409 0 
466 2 20.57 31.4367 0 
467 2 21.78 29.3409 0 
468 2 22.99 31.4367 0 
469 2 24.2 29.3409 0 
470 2 25.41 31.4367 0 
471 2 26.62 29.3409 0 
472 2 27.83 31.4367 0 
473 2 29.04 29.3409 0 
474 2 30.25 31.4367 0 
475 2 31.46 29.3409 0 
476 2 32.67 31.4367 0 
477 2 33.88 29.3409 0 
478 1 35.09 31.4367 0 
479 1 36.3 29.3409 0 
480 1 37.51 31.4367 0 
481 1 38.72 29.3409 0 
482 1 39.93 31.4367 0 
483 1 41.14 29.3409 0 
484 2 42.35 31.4367 0 
485 2 43.56 29.3409 0 
486 2 44.77 31.4367 0 
487 2 45.98 29.3409 0 
488 2 47.19 31.4367 0 
489 2 48.4 29.3409 0 
490 2 49.61 31.4367 0 
491 2 50.82 29.3409 0 
492 2 52.03 31.4367 0 
493 2 53.24 29.3409 0 
494 1 54.45 31.4367 0 
495 1 55.66 29.3409 0 
496 1 56.87 31.4367 0 
497 1 58.08 29.3409 0 
498 1 59.29 31.4367 0 
499 1 60.5 29.3409 0 
500 1 61.71 31.4367 0 
501 1 62.92 29.3409 0 
502 1 64.13 31.4367 0 
503 1 65.34 29.3409 0 
504 1 66.55 31.4367 0 
505 1 67.76 29.3409 0 
506 1 68.97 31.4367 0 
507 1 70.18 29.3409 0 
508 1 71.39 31.4367 0 
509 2 72.6 29.3409 0 
510 2 73.81 31.4367 0 
511 2 75.02 29.3409 0 
512 2 76.23 31.4367 0 
513 2 0 33.5325 0 
514 2 1.21 35.6283 0 
515 2 2.42 33.5325 0 
516 2 3.63 35.6283 0 
517 2 4.84 33.5325 0 
518 2 6.05 35.6283 0 
519 1 7.26 33.5325 0 
520 1 8.47 35.6283 0 
521 1 9.68 33.5325 0 
522 1 10.89 35.6283 0 
523 1 12.1 33.5325 0 
524 1 13.31 35.6283 0 
525 1 14.52 33.5325 0 
526 1 15.73 35.6283 0 
527 1 16.94 33.5325 0 
528 1 18.15 35.6283 0 
529 1 19.36 33.5325 0 
530 2 20.57 35.6283 0 
531 2 21.78 33.5325 0 
532 2 22.99 35.6283 0 
533 2 24.2 33.5325 0 
534 2 25.41 35.6283 0 
535 2 26.62 33.5325 0 
536 1 27.83 35.6283 0 
537 2 29.04 33.5325 0 
538 1 30.25 35.6283 0 
539 1 31.46 33.5325 0 
540 1 32.67 35.6283 0 
541 1 33.88 33.5325 0 
542 1 35.09 35.6283 0 
543 1 36.3 33.5325 0 
544 1 37.51 35.6283 0 
545 1 38.72 33.5325 0 
546 1 39.93 35.6283 0 
547 2 41.14 33.5325 0 
548 2 42.35 35.6283 0 
549 2 43.56 33.5325 0 
550 2 44.77 35.6283 0 
551 2 45.98 33.5325 0 
552 2 47.19 35.6283 0 
553 2 48.4 33.5325 0 
554 2 49.61 35.6283 0 
555 2 50.82 33.5325 0 
556 2 52.03 35.6283 0 
557 2 53.24 33.5325 0 
558 2 54.45 35.6283 0 
559 1 55.66 33.5325 0 
560 1 56.87 35.6283 0 
561 1 58.08 33.5325 0 
562 1 59.29 35.6283 0 
563 1 60.5 33.5325 0 
564 1 61.71 35.6283 0 
565 1 62.92 33.5325 0 
566 1 64.13 35.6283 0 
567 1 65.34 33.5325 0 
568 1 66.55 35.6283 0 
569 1 67.76 33.5325 0 
570 1 68.97 35.6283 0 
571 1 70.18 33.5325 0 
572 1 71.39 35.6283 0 
573 1 72.6 33.5325 0 
574 1 73.81 35.6283 0 
575 2 75.02 33.5325 0 
576 1 76.23 35.6283 0 
577 1 0 37.7241 0 
578 1 1.21 39.8198 0 
579 2 2.42 37.7241 0 
580 2 3.63 39.8198 0 
581 2 4.84 37.7241 0 
582 1 6.05 39.8198 0 
583 1 7.26 37.7241 0 
584 1 8.47 39.8198 0 
585 1 9.68 37.7241 0 
586 1 10.89 39.8198 0 
587 1 12.1 37.7241 0 
588 1 13.31 39.8198 0 
589 1 14.52 37.7241 0 
590 1 15.73 39.8198 0 
591 1 16.94 37.7241 0 
592 1 18.15 39.8198 0 
593 2 19.36 37.7241 0 
594 1 20.57 39.8198 0 
595 2 21.78 37.7241 0 
596 1 22.99 39.8198 0 
597 1 24.2 37.7241 0 
598 1 25.41 39.8198 0 
599 1 26.62 37.7241 0 
600 1 27.83 39.8198 0 
601 1 29.04 37.7241 0 
602 1 30.25 39.8198 0 
603 1 31.46 37.7241 0 
604 1 32.67 39.8198 0 
605 1 33.88 37.7241 0 
606 1 35.09 39.8198 0 
607 1 36.3 37.7241 0 
608 1 37.51 39.8198 0 
609 1 38.72 37.7241 0 
610 1 39.93 39.8198 0 
611 1 41.14 37.7241 0 
612 1 42.35 39.8198 0 
613 1 43.56 37.7241 0 
614 1 44.77 39.8198 0 
615 1 45.98 37.7241 0 
616 1 47.19 39.8198 0 
617 1 48.4 37.7241 0 
618 1 49.61 39.8198 0 
619 2 50.82 37.7241 0 
620 2 52.03 39.8198 0 
621 2 53.24 37.7241 0 
622 2 54.45 39.8198 0 
623 1 55.66 37.7241 0 
624 1 56.87 39.8198 0 
625 1 58.08 37.7241 0 
626 1 59.29 39.8198 0 
627 1 60.5 37.7241 0 
628 1 61.71 39.8198 0 
629 1 62.92 37.7241 0 
630 1 64.13 39.8198 0 
631 1 65.34 37.7241 0 
632 1 66.55 39.8198 0 
633 1 67.76 37.7241 0 
634 1 68.97 39.8198 0 
635 1 70.18 37.7241 0 
636 1 71.39 39.8198 0 
637 1 72.6 37.7241 0 
638 1 73.81 39.8198 0 
639 1 75.02 37.7241 0 
640 1 76.23 39.8198 0 
641 1 0 41.9156 0 
642 1 1.21 44.0114 0 
643 1 2.42 41.9156 0 
644 1 3.63 44.0114 0 
645 1 4.84 41.9156 0 
646 1 6.05 44.0114 0 
647 1 7.26 41.9156 0 
648 1 8.47 44.0114 0 
649 1 9.68 41.9156 0 
650 1 10.89 44.0114 0 
651 1 12.1 41.9156 0 
652 1 13.31 44.0114 0 
653 1 14.52 41.9156 0 
654 1 15.73 44.0114 0 
655 1 16.94 41.9156 0 
656 1 18.15 44.0114 0 
657 1 19.36 41.9156 0 
658 1 20.57 44.0114 0 
659 1 21.78 41.9156 0 
660 1 22.99 44.0114 0 
661 1 24.2 41.9156 0 
662 1 25.41 44.0114 0 
663 1 26.62 41.9156 0 
664 1 27.83 44.0114 0 
665 1 29.04 41.9156 0 
666 1 30.25 44.0114 0 
667 1 31.46 41.9156 0 
668 1 32.67 44.0114 0 
669 1 33.88 41.9156 0 
670 1 35.09 44.0114 0 
671 1 36.3 41.9156 0 
672 1 37.51 44.0114 0 
673 1 38.72 41.9156 0 
674 1 39.93 44.0114 0 
675 1 41.14 41.9156 0 
676 1 42.35 44.0114 0 
677 1 43.56 41.9156 0 
678 1 44.77 44.0114 0 
679 1 45.98 41.9156 0 
680 1 47.19 44.0114 0 
681 1 48.4 41.9156 0 
682 1 49.61 44.0114 0 
683 1 50.82 41.9156 0 
684 1 52.03 44.0114 0 
685 1 53.24 41.9156 0 
686 1 54.45 44.0114 0 
687 1 55.66 41.9156 0 
688 1 56.87 44.0114 0 
689 1 58.08 41.9156 0 
690 1 59.29 44.0114 0 
691 1 60.5 41.9156 0 
692 1 61.71 44.0114 0 
693 1 62.92 41.9156 0 
694 1 64.13 44.0114 0 
695 1 65.34 41.9156 0 
696 1 66.55 44.0114 0 
697 1 67.76 41.9156 0 
698 1 68.97 44.0114 0 
699 1 70.18 41.9156 0 
700 1 71.39 44.0114 0 
701 1 72.6 41.9156 0 
702 1 73.81 44.0114 0 
703 1 75.02 41.9156 0 
704 1 76.23 44.0114 0 
705 1 0 46.1072 0 
706 1 1.21 48.203 0 
707 1 2.42 46.1072 0 
708 1 3.63 48.203 0 
709 1 4.84 46.1072 0 
710 1 6.05 48.203 0 
711 1 7.26 46.1072 0 
712 1 8.47 48.203 0 
713 1 9.68 46.1072 0 
714 1 10.89 48.203 0 
715 1 12.1 46.1072 0 
716 1 13.31 48.203 0 
717 1 14.52 46.1072 0 
718 1 15.73 48.203 0 
719 1 16.94 46.1072 0 
720 1 18.15 48.203 0 
721 1 19.36 46.1072 0 
722 1 20.57 48.203 0 
723 1 21.78 46.1072 0 
724 1 22.99 48.203 0 
725 1 24.2 46.1072 0 
726 1 25.41 48.203 0 
727 1 26.62 46.1072 0 
728 1 27.83 48.203 0 
729 1 29.04 46.1072 0 
730 1 30.25 48.203 0 
731 1 31.46 46.1072 0 
732 1 32.67 48.203 0 
733 1 33.88 46.1072 0 
734 1 35.09 48.203 0 
735 1 36.3 46.1072 0 
736 1 37.51 48.203 0 
737 1 38.72 46.1072 0 
738 1 39.93 48.203 0 
739 1 41.14 46.1072 0 
740 1 42.35 48.203 0 
741 1 43.56 46.1072 0 
742 1 44.77 48.203 0 
743 1 45.98 46.1072 0 
744 1 47.19 48.203 0 
745 1 48.4 46.1072 0 
746 1 49.61 48.203 0 
747 1 50.82 46.1072 0 
748 1 52.03 48.203 0 
749 1 53.24 46.1072 0 
750 1 54.45 48.203 0 
751 1 55.66 46.1072 0 
752 1 56.87 48.203 0 
753 1 58.08 46.1072 0 
754 1 59.29 48.203 0 
755 1 60.5 46.1072 0 
756 1 61.71 48.203 0 
757 1 62.92 46.1072 0 
758 1 64.13 48.203 0 
759 1 65.34 46.1072 0 
760 1 66.55 48.203 0 
761 1 67.76 46.1072 0 
762 1 68.97 48.203 0 
763 1 70.18 46.1072 0 
764 1 71.39 48.203 0 
765 1 72.6 46.1072 0 
766 1 73.81 48.203 0 
767 1 75.02 46.1072 0 
768 1 76.23 48.203 0 
769 1 0 50.2988 0 
770 1 1.21 52.3945 0 
771 1 2.42 50.2988 0 
772 1 3.63 52.3945 0 
773 1 4.84 50.2988 0 
774 1 6.05 52.3945 0 
775 1 7.26 50.2988 0 
776 1 8.47 52.3945 0 
777 1 9.68 50.2988 0 
778 1 10.89 52.3945 0 
779 1 12.1 50.2988 0 
780 1 13.31 52.3945 0 
781 1 14.52 50.2988 0 
782 1 15.73 52.3945 0 
783 1 16.94 50.2988 0 
784 1 18.15 52.3945 0 
785 1 19.36 50.2988 0 
786 1 20.57 52.3945 0 
787 1 21.78 50.2988 0 
788 1 22.99 52.3945 0 
789 1 24.2 50.2988 0 
790 1 25.41 52.3945 0 
791 1 26.62 50.2988 0 
792 1 27.83 52.3945 0 
793 1 29.04 50.2988 0 
794 1 30.25 52.3945 0 
795 1 31.46 50.2988 0 
796 1 32.67 52.3945 0 
797 1 33.88 50.2988 0 
798 1 35.09 52.3945 0 
799 1 36.3 50.2988 0 
800 1 37.51 52.3945 0 
801 1 38.72 50.2988 0 
802 1 39.93 52.3945 0 
803 1 41.14 50.2988 0 
804 1 42.35 52.3945 0 
805 1 43.56 50.2988 0 
806 1 44.77 52.3945 0 
807 1 45.98 50.2988 0 
808 1 47.19 52.3945 0 
809 1 48.4 50.2988 0 
810 1 49.61 52.3945 0 
811 1 50.82 50.2988 0 
812 1 52.03 52.3945 0 
813 1 53.24 50.2988 0 
814 1 54.45 52.3945 0 
815 1 55.66 50.2988 0 
816 1 56.87 52.3945 0 
817 1 58.08 50.2988 0 
818 1 59.29 52.3945 0 
819 1 60.5 50.2988 0 
820 1 61.71 52.3945 0 
821 1 62.92 50.2988 0 
822 1 64.13 52.3945 0 
823 1 65.34 50.2988 0 
824 1 66.55 52.3945 0 
825 1 67.76 50.2988 0 
826 1 68.97 52.3945 0 
827 1 70.18 50.2988 0 
828 1 71.39 52.3945 0 
829 1 72.6 50.2988 0 
830 1 73.81 52.3945 0 
831 1 75.02 50.2988 0 
832 1 76.23 52.3945 0 
833 1 0 54.4903 0 
834 1 1.21 56.5861 0 
835 1 2.42 54.4903 0 
836 1 3.63 56.5861 0 
837 1 4.84 54.4903 0 
838 1 6.05 56.5861 0 
839 1 7.26 54.4903 0 
840 1 8.47 56.5861 0 
841 1 9.68 54.4903 0 
842 1 10.89 56.5861 0 
843 1 12.1 54.4903 0 
844 1 13.31 56.5861 0 
845 1 14.52 54.4903 0 
846 1 15.73 56.5861 0 
847 1 16.94 54.4903 0 
848 1 18.15 56.5861 0 
849 1 19.36 54.4903 0 
850 1 20.57 56.5861 0 
851 1 21.78 54.4903 0 
852 1 22.99 56.5861 0 
853 1 24.2 54.4903 0 
854 1 25.41 56.5861 0 
855 1 26.62 54.4903 0 
856 1 27.83 56.5861 0 
857 1 29.04 54.4903 0 
858 1 30.25 56.5861 0 
859 1 31.46 54.4903 0 
860 1 32.67 56.5861 0 
861 1 33.88 54.4903 0 
862 1 35.09 56.5861 0 
863 1 36.3 54.4903 0 
864 1 37.51 56.5861 0 
865 1 38.72 54.4903 0 
866 1 39.93 56.5861 0 
867 1 41.14 54.4903 0 
868 1 42.35 56.5861 0 
869 1 43.56 54.4903 0 
870 1 44.77 56.5861 0 
871 1 45.98 54.4903 0 
872 1 47.19 56.5861 0 
873 1 48.4 54.4903 0 
874 1 49.61 56.5861 0 
875 1 50.82 54.4903 0 
876 1 52.03 56.5861 0 
877 1 53.24 54.4903 0 
878 1 54.45 56.5861 0 
879 1 55.66 54.4903 0 
880 1 56.87 56.5861 0 
881 1 58.08 54.4903 0 
882 1 59.29 56.5861 0 
883 1 60.5 54.4903 0 
884 1 61.71 56.5861 0 
885 1 62.92 54.4903 0 
886 1 64.13 56.5861 0 
887 1 65.34 54.4903 0 
888 1 66.55 56.5861 0 
889 1 67.76 54.4903 0 
890 1 68.97 56.5861 0 
891 1 70.18 54.4903 0 
892 1 71.39 56.5861 0 
893 1 72.6 54.4903 0 
894 1 73.81 56.5861 0 
895 1 75.02 54.4903 0 
896 1 76.23 56.5861 0 
897 1 0 58.6819 0 
898 1 1.21 60.7777 0 
899 1 2.42 58.6819 0 
900 1 3.63 60.7777 0 
901 1 4.84 58.6819 0 
902 1 6.05 60.7777 0 
903 1 7.26 58.6819 0 
904 1 8.47 60.7777 0 
905 1 9.68 58.6819 0 
906 1 10.89 60.7777 0 
907 1 12.1 58.6819 0 
908 1 13.31 60.7777 0 
909 1 14.52 58.6819 0 
910 1 15.73 60.7777 0 
911 1 16.94 58.6819 0 
912 1 18.15 60.7777 0 
913 1 19.36 58.6819 0 
914 1 20.57 60.7777 0 
915 1 21.78 58.6819 0 
916 1 22.99 60.7777 0 
917 1 24.2 58.6819 0 
918 1 25.41 60.7777 0 
919 1 26.62 58.6819 0 
920 1 27.83 60.7777 0 
921 1 29.04 58.6819 0 
922 1 30.25 60.7777 0 
923 1 31.46 58.6819 0 
924 1 32.67 60.7777 0 
925 1 33.88 58.6819 0 
926 1 35.09 60.7777 0 
927 1 36.3 58.6819 0 
928 1 37.51 60.7777 0 
929 1 38.72 58.6819 0 
930 1 39.93 60.7777 0 
931 1 41.14 58.6819 0 
932 1 42.35 60.7777 0 
933 1 43.56 58.6819 0 
934 1 44.77 60.7777 0 
935 1 45.98 58.6819 0 
936 1 47.19 60.7777 0 
937 1 48.4 58.6819 0 
938 1 49.61 60.7777 0 
939 1 50.82 58.6819 0 
940 1 52.03 60.7777 0 
941 1 53.24 58.6819 0 
942 1 54.45 60.7777 0 
943 1 55.66 58.6819 0 
944 1 56.87 60.7777 0 
945 1 58.08 58.6819 0 
946 1 59.29 60.7777 0 
947 1 60.5 58.6819 0 
948 1 61.71 60.7777 0 
949 1 62.92 58.6819 0 
950 1 64.13 60.7777 0 
951 1 65.34 58.6819 0 
952 1 66.55 60.7777 0 
953 1 67.76 58.6819 0 
954 1 68.97 60.7777 0 
955 1 70.18 58.6819 0 
956 1 71.39 60.7777 0 
957 1 72.6 58.6819 0 
958 1 73.81 60.7777 0 
959 1 75.02 58.6819 0 
960 1 76.23 60.7777 0 
961 1 0 62.8734 0 
962 1 1.21 64.9692 0 
963 1 2.42 62.8734 0 
964 1 3.63 64.9692 0 
965 1 4.84 62.8734 0 
966 1 6.05 64.9692 0 
967 1 7.26 62.8734 0 
968 1 8.47 64.9692 0 
969 1 9.68 62.8734 0 
970 1 10.89 64.9692 0 
971 1 12.1 62.8734 0 
972 1 13.31 64.9692 0 
973 1 14.52 62.8734 0 
974 1 15.73 64.9692 0 
975 1 16.94 62.8734 0 
976 1 18.15 64.9692 0 
977 1 19.36 62.8734 0 
978 1 20.57 64.9692 0 
979 1 21.78 62.8734 0 
980 1 22.99 64.9692 0 
981 1 24.2 62.8734 0 
982 1 25.41 64.9692 0 
983 1 26.62 62.8734 0 
984 1 27.83 64.9692 0 
985 1 29.04 62.8734 0 
986 1 30.25 64.9692 0 
987 1 31.46 62.8734 0 
988 1 32.67 64.9692 0 
989 1 33.88 62.8734 0 
990 1 35.09 64.9692 0 
991 1 36.3 62.8734 0 
992 1 37.51 64.9692 0 
993 1 38.72 62.8734 0 
994 1 39.93 64.9692 0 
995 1 41.14 62.8734 0 
996 1 42.35 64.9692 0 
997 1 43.56 62.8734 0 
998 1 44.77 64.9692 0 
999 1 45.98 62.8734 0 
1000 1 47.19 64.9692 0 
1001 1 48.4 62.8734 0 
1002 1 49.61 64.9692 0 
1003 1 50.82 62.8734 0 
1004 1 52.03 64.9692 0 
1005 1 53.24 62.8734 0 
1006 1 54.45 64.9692 0 
1007 1 55.66 62.8734 0 
1008 1 56.87 64.9692 0 
1009 1 58.08 62.8734 0 
1010 1 59.29 64.9692 0 
1011 1 60.5 62.8734 0 
1012 1 61.71 64.9692 0 
1013 1 62.92 62.8734 0 
1014 1 64.13 64.9692 0 
1015 1 65.34 62.8734 0 
1016 1 66.55 64.9692 0 
1017 1 67.76 62.8734 0 
1018 1 68.97 64.9692 0 
1019 1 70.18 62.8734 0 
1020 1 71.39 64.9692 0 
1021 1 72.6 62.8734 0 
1022 1 73.81 64.9692 0 
1023 1 75.02 62.8734 0 
1024 1 76.23 64.9692 0 
1025 1 0 67.065 0 
1026 1 1.21 69.1608 0 
1027 1 2.42 67.065 0 
1028 1 3.63 69.1608 0 
1029 1 4.84 67.065 0 
1030 1 6.05 69.1608 0 
1031 1 7.26 67.065 0 
1032 1 8.47 69.1608 0 
1033 1 9.68 67.065 0 
1034 1 10.89 69.1608 0 
1035 1 12.1 67.065 0 
1036 1 13.31 69.1608 0 
1037 1 14.52 67.065 0 
1038 1 15.73 69.1608 0 
1039 1 16.94 67.065 0 
1040 1 18.15 69.1608 0 
1041 1 19.36 67.065 0 
1042 1 20.57 69.1608 0 
1043 1 21.78 67.065 0 
1044 1 22.99 69.1608 0 
1045 1 24.2 67.065 0 
1046 1 25.41 69.1608 0 
1047 1 26.62 67.065 0 
1048 1 27.83 69.1608 0 
1049 1 29.04 67.065 0 
1050 1 30.25 69.1608 0 
1051 1 31.46 67.065 0 
1052 1 32.67 69.1608 0 
1053 1 33.88 67.065 0 
1054 1 35.09 69.1608 0 
1055 1 36.3 67.065 0 
1056 1 37.51 69.1608 0 
1057 1 38.72 67.065 0 
1058 1 39.93 69.1608 0 
1059 1 41.14 67.065 0 
1060 1 42.35 69.1608 0 
1061 1 43.56 67.065 0 
1062 1 44.77 69.1608 0 
1063 1 45.98 67.065 0 
1064 1 47.19 69.1608 0 
1065 1 48.4 67.065 0 
1066 1 49.61 69.1608 0 
1067 1 50.82 67.065 0 
1068 1 52.03 69.1608 0 
1069 1 53.24 67.065 0 
1070 1 54.45 69.1608 0 
1071 1 55.66 67.065 0 
1072 1 56.87 69.1608 0 
1073 1 58.08 67.065 0 
1074 1 59.29 69.1608 0 
1075 1 60.5 67.065 0 
1076 1 61.71 69.1608 0 
1077 1 62.92 67.065 0 
1078 1 64.13 69.1608 0 
1079 1 65.34 67.065 0 
1080 1 66.55 69.1608 0 
1081 1 67.76 67.065 0 
1082 1 68.97 69.1608 0 
1083 1 70.18 67.065 0 
1084 1 71.39 69.1608 0 
1085 1 72.6 67.065 0 
1086 1 73.81 69.1608 0 
1087 1 75.02 67.065 0 
1088 1 76.23 69.1608 0 
1089 1 0 71.2566 0 
1090 1 1.21 73.3524 0 
1091 1 2.42 71.2566 0 
1092 1 3.63 73.3524 0 
1093 1 4.84 71.2566 0 
1094 1 6.05 73.3524 0 
1095 1 7.26 71.2566 0 
1096 1 8.47 73.3524 0 
1097 1 9.68 71.2566 0 
1098 1 10.89 73.3524 0 
1099 1 12.1 71.2566 0 
1100 1 13.31 73.3524 0 
1101 1 14.52 71.2566 0 
1102 1 15.73 73.3524 0 
1103 1 16.94 71.2566 0 
1104 1 18.15 73.3524 0 
1105 1 19.36 71.2566 0 
1106 1 20.57 73.3524 0 
1107 1 21.78 71.2566 0 
1108 1 22.99 73.3524 0 
1109 1 24.2 71.2566 0 
1110 1 25.41 73.3524 0 
1111 1 26.62 71.2566 0 
1112 1 27.83 73.3524 0 
1113 1 29.04 71.2566 0 
1114 1 30.25 73.3524 0 
1115 1 31.46 71.2566 0 
1116 1 32.67 73.3524 0 
1117 1 33.88 71.2566 0 
1118 1 35.09 73.3524 0 
1119 1 36.3 71.2566 0 
1120 1 37.51 73.3524 0 
1121 1 38.72 71.2566 0 
1122 1 39.93 73.3524 0 
1123 1 41.14 71.2566 0 
1124 1 42.35 73.3524 0 
1125 1 43.56 71.2566 0 
1126 1 44.77 73.3524 0 
1127 1 45.98 71.2566 0 
1128 1 47.19 73.3524 0 
1129 1 48.4 71.2566 0 
1130 1 49.61 73.3524 0 
1131 1 50.82 71.2566 0 
1132 1 52.03 73.3524 0 
1133 1 53.24 71.2566 0 
1134 1 54.45 73.3524 0 
1135 1 55.66 71.2566 0 
1136 1 56.87 73.3524 0 
1137 1 58.08 71.2566 0 
1138 1 59.29 73.3524 0 
1139 1 60.5 71.2566 0 
1140 1 61.71 73.3524 0 
1141 1 62.92 71.2566 0 
1142 1 64.13 73.3524 0 
1143 1 65.34 71.2566 0 
1144 1 66.55 73.3524 0 
1145 1 67.76 71.2566 0 
1146 1 68.97 73.3524 0 
1147 1 70.18 71.2566 0 
1148 1 71.39 73.3524 0 
1149 1 72.6 71.2566 0 
1150 1 73.81 73.3524 0 
1151 1 75.02 71.2566 0 
1152 1 76.23 73.3524 0 
1153 1 0 75.4481 0 
1154 1 1.21 77.5439 0 
1155 1 2.42 75.4481 0 
1156 1 3.63 77.5439 0 
1157 1 4.84 75.4481 0 
1158 1 6.05 77.5439 0 
1159 1 7.26 75.4481 0 
1160 1 8.47 77.5439 0 
1161 1 9.68 75.4481 0 
1162 1 10.89 77.5439 0 
1163 1 12.1 75.4481 0 
1164 1 13.31 77.5439 0 
1165 1 14.52 75.4481 0 
1166 1 15.73 77.5439 0 
1167 1 16.94 75.4481 0 
1168 1 18.15 77.5439 0 
1169 1 19.36 75.4481 0 
1170 1 20.57 77.5439 0 
1171 1 21.78 75.4481 0 
1172 1 22.99 77.5439 0 
1173 1 24.2 75.4481 0 
1174 1 25.41 77.5439 0 
1175 1 26.62 75.4481 0 
1176 1 27.83 77.5439 0 
1177 1 29.04 75.4481 0 
1178 1 30.25 77.5439 0 
1179 1 31.46 75.4481 0 
1180 1 32.67 77.5439 0 
1181 1 33.88 75.4481 0 
1182 1 35.09 77.5439 0 
1183 1 36.3 75.4481 0 
1184 1 37.51 77.5439 0 
1185 1 38.72 75.4481 0 
1186 1 39.93 77.5439 0 
1187 1 41.14 75.4481 0 
1188 1 42.35 77.5439 0 
1189 1 43.56 75.4481 0 
1190 1 44.77 77.5439 0 
1191 1 45.98 75.4481 0 
1192 1 47.19 77.5439 0 
1193 1 48.4 75.4481 0 
1194 1 49.61 77.5439 0 
1195 1 50.82 75.4481 0 
1196 1 52.03 77.5439 0 
1197 1 53.24 75.4481 0 
1198 1 54.45 77.5439 0 
1199 1 55.66 75.4481 0 
1200 1 56.87 77.5439 0 
1201 1 58.08 75.4481 0 
1202 1 59.29 77.5439 0 
1203 1 60.5 75.4481 0 
1204 1 61.71 77.5439 0 
1205 1 62.92 75.4481 0 
1206 1 64.13 77.5439 0 
1207 1 65.34 75.4481 0 
1208 1 66.55 77.5439 0 
1209 1 67.76 75.4481 0 
1210 1 68.97 77.5439 0 
1211 1 70.18 75.4481 0 
1212 1 71.39 77.5439 0 
1213 1 72.6 75.4481 0 
1214 1 73.81 77.5439 0 
1215 1 75.02 75.4481 0 
1216 1 76.23 77.5439 0 
1217 1 0 79.6397 0 
1218 1 1.21 81.7355 0 
1219 1 2.42 79.6397 0 
1220 1 3.63 81.7355 0 
1221 1 4.84 79.6397 0 
1222 1 6.05 81.7355 0 
1223 1 7.26 79.6397 0 
1224 1 8.47 81.7355 0 
1225 1 9.68 79.6397 0 
1226 1 10.89 81.7355 0 
1227 1 12.1 79.6397 0 
1228 1 13.31 81.7355 0 
1229 1 14.52 79.6397 0 
1230 1 15.73 81.7355 0 
1231 1 16.94 79.6397 0 
1232 1 18.15 81.7355 0 
1233 1 19.36 79.6397 0 
1234 1 20.57 81.7355 0 
1235 1 21.78 79.6397 0 
1236 1 22.99 81.7355 0 
1237 1 24.2 79.6397 0 
1238 1 25.41 81.7355 0 
1239 1 26.62 79.6397 0 
1240 1 27.83 81.7355 0 
1241 1 29.04 79.6397 0 
1242 1 30.25 81.7355 0 
1243 1 31.46 79.6397 0 
1244 1 32.67 81.7355 0 
1245 1 33.88 79.6397 0 
1246 1 35.09 81.7355 0 
1247 1 36.3 79.6397 0 
1248 1 37.51 81.7355 0 
1249 1 38.72 79.6397 0 
1250 1 39.93 81.7355 0 
1251 1 41.14 79.6397 0 
1252 1 42.35 81.7355 0 
1253 1 43.56 79.6397 0 
1254 1 44.77 81.7355 0 
1255 1 45.98 79.6397 0 
1256 1 47.19 81.7355 0 
1257 1 48.4 79.6397 0 
1258 1 49.61 81.7355 0 
1259 1 50.82 79.6397 0 
1260 1 52.03 81.7355 0 
1261 1 53.24 79.6397 0 
1262 1 54.45 81.7355 0 
1263 1 55.66 79.6397 0 
1264 1 56.87 81.7355 0 
1265 1 58.08 79.6397 0 
1266 1 59.29 81.7355 0 
1267 1 60.5 79.6397 0 
1268 1 61.71 81.7355 0 
1269 1 62.92 79.6397 0 
1270 1 64.13 81.7355 0 
1271 1 65.34 79.6397 0 
1272 1 66.55 81.7355 0 
1273 1 67.76 79.6397 0 
1274 1 68.97 81.7355 0 
1275 1 70.18 79.6397 0 
1276 1 71.39 81.7355 0 
1277 1 72.6 79.6397 0 
1278 1 73.81 81.7355 0 
1279 1 75.02 79.6397 0 
1280 1 76.23 81.7355 0 
1281 1 0 83.8313 0 
1282 1 1.21 85.927 0 
1283 1 2.42 83.8313 0 
1284 1 3.63 85.927 0 
1285 1 4.84 83.8313 0 
1286 1 6.05 85.927 0 
1287 1 7.26 83.8313 0 
1288 1 8.47 85.927 0 
1289 1 9.68 83.8313 0 
1290 1 10.89 85.927 0 
1291 1 12.1 83.8313 0 
1292 1 13.31 85.927 0 
1293 1 14.52 83.8313 0 
1294 1 15.73 85.927 0 
1295 1 16.94 83.8313 0 
1296 1 18.15 85.927 0 
1297 1 19.36 83.8313 0 
1298 1 20.57 85.927 0 
1299 1 21.78 83.8313 0 
1300 1 22.99 85.927 0 
1301 1 24.2 83.8313 0 
1302 1 25.41 85.927 0 
1303 1 26.62 83.8313 0 
1304 1 27.83 85.927 0 
1305 1 29.04 83.8313 0 
1306 1 30.25 85.927 0 
1307 1 31.46 83.8313 0 
1308 1 32.67 85.927 0 
1309 1 33.88 83.8313 0 
1310 1 35.09 85.927 0 
1311 1 36.3 83.8313 0 
1312 1 37.51 85.927 0 
1313 1 38.72 83.8313 0 
1314 1 39.93 85.927 0 
1315 1 41.14 83.8313 0 
1316 1 42.35 85.927 0 
1317 1 43.56 83.8313 0 
1318 1 44.77 85.927 0 
1319 1 45.98 83.8313 0 
1320 1 47.19 85.927 0 
1321 1 48.4 83.8313 0 
1322 1 49.61 85.927 0 
1323 1 50.82 83.8313 0 
1324 1 52.03 85.927 0 
1325 1 53.24 83.8313 0 
1326 1 54.45 85.927 0 
1327 1 55.66 83.8313 0 
1328 1 56.87 85.927 0 
1329 1 58.08 83.8313 0 
1330 1 59.29 85.927 0 
1331 1 60.5 83.8313 0 
1332 1 61.71 85.927 0 
1333 1 62.92 83.8313 0 
1334 1 64.13 85.927 0 
1335 1 65.34 83.8313 0 
1336 1 66.55 85.927 0 
1337 1 67.76 83.8313 0 
1338 1 68.97 85.927 0 
1339 1 70.18 83.8313 0 
1340 1 71.39 85.927 0 
1341 1 72.6 83.8313 0 
1342 1 73.81 85.927 0 
1343 1 75.02 83.8313 0 
1344 1 76.23 85.927 0 
1345 1 0 88.0228 0 
1346 1 1.21 90.1186 0 
1347 1 2.42 88.0228 0 
1348 1 3.63 90.1186 0 
1349 1 4.84 88.0228 0 
1350 1 6.05 90.1186 0 
1351 1 7.26 88.0228 0 
1352 1 8.47 90.1186 0 
1353 1 9.68 88.0228 0 
1354 1 10.89 90.1186 0 
1355 1 12.1 88.0228 0 
1356 1 13.31 90.1186 0 
1357 1 14.52 88.0228 0 
1358 1 15.73 90.1186 0 
1359 1 16.94 88.0228 0 
1360 1 18.15 90.1186 0 
1361 1 19.36 88.0228 0 
1362 1 20.57 90.1186 0 
1363 1 21.78 88.0228 0 
1364 1 22.99 90.1186 0 
1365 1 24.2 88.0228 0 
1366 1 25.41 90.1186 0 
1367 1 26.62 88.0228 0 
1368 1 27.83 90.1186 0 
1369 1 29.04 88.0228 0 
1370 1 30.25 90.1186 0 
1371 1 31.46 88.0228 0 
1372 1 32.67 90.1186 0 
1373 1 33.88 88.0228 0 
1374 1 35.09 90.1186 0 
1375 1 36.3 88.0228 0 
1376 1 37.51 90.1186 0 
1377 1 38.72 88.0228 0 
1378 1 39.93 90.1186 0 
1379 1 41.14 88.0228 0 
1380 1 42.35 90.1186 0 
1381 1 43.56 88.0228 0 
1382 1 44.77 90.1186 0 
1383 1 45.98 88.0228 0 
1384 1 47.19 90.1186 0 
1385 1 48.4 88.0228 0 
1386 1 49.61 90.1186 0 
1387 1 50.82 88.0228 0 
1388 1 52.03 90.1186 0 
1389 1 53.24 88.0228 0 
1390 1 54.45 90.1186 0 
1391 1 55.66 88.0228 0 
1392 1 56.87 90.1186 0 
1393 1 58.08 88.0228 0 
1394 1 59.29 90.1186 0 
1395 1 60.5 88.0228 0 
1396 1 61.71 90.1186 0 
1397 1 62.92 88.0228 0 
1398 1 64.13 90.1186 0 
1399 1 65.34 88.0228 0 
1400 1 66.55 90.1186 0 
1401 1 67.76 88.0228 0 
1402 1 68.97 90.1186 0 
1403 1 70.18 88.0228 0 
1404 1 71.39 90.1186 0 
1405 1 72.6 88.0228 0 
1406 1 73.81 90.1186 0 
1407 1 75.02 88.0228 0 
1408 1 76.23 90.1186 0 
1409 1 0 92.2144 0 
1410 1 1.21 94.3102 0 
1411 1 2.42 92.2144 0 
1412 1 3.63 94.3102 0 
1413 1 4.84 92.2144 0 
1414 1 6.05 94.3102 0 
1415 1 7.26 92.2144 0 
1416 1 8.47 94.3102 0 
1417 1 9.68 92.2144 0 
1418 1 10.89 94.3102 0 
1419 1 12.1 92.2144 0 
1420 1 13.31 94.3102 0 
1421 1 14.52 92.2144 0 
1422 1 15.73 94.3102 0 
1423 1 16.94 92.2144 0 
1424 1 18.15 94.3102 0 
1425 1 19.36 92.2144 0 
1426 1 20.57 94.3102 0 
1427 1 21.78 92.2144 0 
1428 1 22.99 94.3102 0 
1429 1 24.2 92.2144 0 
1430 1 25.41 94.3102 0 
1431 1 26.62 92.2144 0 
1432 1 27.83 94.3102 0 
1433 1 29.04 92.2144 0 
1434 1 30.25 94.3102 0 
1435 1 31.46 92.2144 0 
1436 1 32.67 94.3102 0 
1437 1 33.88 92.2144 0 
1438 1 35.09 94.3102 0 
1439 1 36.3 92.2144 0 
1440 1 37.51 94.3102 0 
1441 1 38.72 92.2144 0 
1442 1 39.93 94.3102 0 
1443 1 41.14 92.2144 0 
1444 1 42.35 94.3102 0 
1445 1 43.56 92.2144 0 
1446 1 44.77 94.3102 0 
1447 1 45.98 92.2144 0 
1448 1 47.19 94.3102 0 
1449 1 48.4 92.2144 0 
1450 1 49.61 94.3102 0 
1451 1 50.82 92.2144 0 
1452 1 52.03 94.3102 0 
1453 1 53.24 92.2144 0 
1454 1 54.45 94.3102 0 
1455 1 55.66 92.2144 0 
1456 1 56.87 94.3102 0 
1457 1 58.08 92.2144 0 
1458 1 59.29 94.3102 0 
1459 1 60.5 92.2144 0 
1460 1 61.71 94.3102 0 
1461 1 62.92 92.2144 0 
1462 1 64.13 94.3102 0 
1463 1 65.34 92.2144 0 
1464 1 66.55 94.3102 0 
1465 1 67.76 92.2144 0 
1466 1 68.97 94.3102 0 
1467 1 70.18 92.2144 0 
1468 1 71.39 94.3102 0 
1469 1 72.6 92.2144 0 
1470 1 73.81 94.3102 0 
1471 1 75.02 92.2144 0 
1472 1 76.23 94.3102 0 
1473 3 0 96.4059 0 
1474 3 1.21 98.5017 0 
1475 3 2.42 96.4059 0 
1476 3 3.63 98.5017 0 
1477 3 4.84 96.4059 0 
1478 3 6.05 98.5017 0 
1479 3 7.26 96.4059 0 
1480 3 8.47 98.5017 0 
1481 3 9.68 96.4059 0 
1482 3 10.89 98.5017 0 
1483 3 12.1 96.4059 0 
1484 3 13.31 98.5017 0 
1485 3 14.52 96.4059 0 
1486 3 15.73 98.5017 0 
1487 3 16.94 96.4059 0 
1488 3 18.15 98.5017 0 
1489 3 19.36 96.4059 0 
1490 3 20.57 98.5017 0 
1491 3 21.78 96.4059 0 
1492 3 22.99 98.5017 0 
1493 3 24.2 96.4059 0 
1494 3 25.41 98.5017 0 
1495 3 26.62 96.4059 0 
1496 3 27.83 98.5017 0 
1497 3 29.04 96.4059 0 
1498 3 30.25 98.5017 0 
1499 3 31.46 96.4059 0 
1500 3 32.67 98.5017 0 
1501 3 33.88 96.4059 0 
1502 3 35.09 98.5017 0 
1503 3 36.3 96.4059 0 
1504 3 37.51 98.5017 0 
1505 3 38.72 96.4059 0 
1506 3 39.93 98.5017 0 
1507 3 41.14 96.4059 0 
1508 3 42.35 98.5017 0 
1509 3 43.56 96.4059 0 
1510 3 44.77 98.5017 0 
1511 3 45.98 96.4059 0 
1512 3 47.19 98.5017 0 
1513 3 48.4 96.4059 0 
1514 3 49.61 98.5017 0 
1515 3 50.82 96.4059 0 
1516 3 52.03 98.5017 0 
1517 3 53.24 96.4059 0 
1518 3 54.45 98.5017 0 
1519 3 55.66 96.4059 0 
1520 3 56.87 98.5017 0 
1521 3 58.08 96.4059 0 
1522 3 59.29 98.5017 0 
1523 3 60.5 96.4059 0 
1524 3 61.71 98.5017 0 
1525 3 62.92 96.4059 0 
1526 3 64.13 98.5017 0 
1527 3 65.34 96.4059 0 
1528 3 66.55 98.5017 0 
1529 3 67.76 96.4059 0 
1530 3 68.97 98.5017 0 
1531 3 70.18 96.4059 0 
1532 3 71.39 98.5017 0 
1533 3 72.6 96.4059 0 
1534 3 73.81 98.5017 0 
1535 3 75.02 96.4059 0 
1536 3 76.23 98.5017 0 
ITEM: TIMESTEP
10      2e+11
ITEM: NUMBER OF ATOMS
1536
ITEM: BOX BOUNDS
0 77.44
0 100.598
-1.21 1.21
ITEM: ATOMS id type x y z
1 2 0 0 0 
2 2 1.21 2.09578 0 
3 2 2.42 0 0 
4 2 3.63 2.09578 0 
5 2 4.84 0 0 
6 2 6.05 2.09578 0 
7 2 7.26 0 0 
8 2 8.47 2.09578 0 
9 2 9.68 0 0 
10 2 10.89 2.09578 0 
11 2 12.1 0 0 
12 2 13.31 2.09578 0 
13 2 14.52 0 0 
14 2 15.73 2.09578 0 
15 2 16.94 0 0 
16 2 18.15 2.09578 0 
17 2 19.36 0 0 
18 2 20.57 2.09578 0 
19 2 21.78 0 0 
20 2 22.99 2.09578 0 
21 2 24.2 0 0 
22 2 25.41 2.09578 0 
23 2 26.62 0 0 
24 2 27.83 2.09578 0 
25 2 29.04 0 0 
26 2 30.25 2.09578 0 
27 2 31.46 0 0 
28 2 32.67 2.09578 0 
29 2 33.88 0 0 
30 2 35.09 2.09578 0 
31 2 36.3 0 0 
32 2 37.51 2.09578 0 
33 2 38.72 0 0 
34 2 39.93 2.09578 0 
35 2 41.14 0 0 
36 2 42.35 2.09578 0 
37 2 43.56 0 0 
38 2 44.77 2.09578 0 
39 2 45.98 0 0 
40 2 47.19 2.09578 0 
41 2 48.4 0 0 
42 2 49.61 2.09578 0 
43 2 50.82 0 0 
44 2 52.03 2.09578 0 
45 2 53.24 0 0 
46 2 54.45 2.09578 0 
47 2 55.66 0 0 
48 2 56.87 2.09578 0 
49 2 58.08 0 0 
50 2 59.29 2.09578 0 
51 2 60.5 0 0 
52 2 61.71 2.09578 0 
53 2 62.92 0 0 
54 2 64.13 2.09578 0 
55 2 65.34 0 0 
56 2 66.55 2.09578 0 
57 2 67.76 0 0 
58 2 68.97 2.09578 0 
59 2 70.18 0 0 
60 2 71.39 2.09578 0 
61 2 72.6 0 0 
62 2 73.81 2.09578 0 
63 2 75.02 0 0 
64 2 76.23 2.09578 0 
65 2 0 4.19156 0 
66 2 1.21 6.28734 0 
67 2 2.42 4.19156 0 
68 2 3.63 6.28734 0 
69 2 4.84 4.19156 0 
70 2 6.05 6.28734 0 
71 2 7.26 4.19156 0 
72 2 8.47 6.28734 0 
73 2 9.68 4.19156 0 
74 2 10.89 6.28734 0 
75 2 12.1 4.19156 0 
76 2 13.31 6.28734 0 
77 2 14.52 4.19156 0 
78 2 15.73 6.28734 0 
79 2 16.94 4.19156 0 
80 2 18.15 6.28734 0 
81 2 19.36 4.19156 0 
82 2 20.57 6.28734 0 
83 2 21.78 4.19156 0 
84 2 22.99 6.28734 0 
85 2 24.2 4.19156 0 
86 2 25.41 6.28734 0 
87 2 26.62 4.19156 0 
88 2 27.83 6.28734 0 
89 2 29.04 4.19156 0 
90 2 30.25 6.28734 0 
91 2 31.46 4.19156 0 
92 2 32.67 6.28734 0 
93 2 33.88 4.19156 0 
94 2 35.09 6.28734 0 
95 2 36.3 4.19156 0 
96 2 37.51 6.28734 0 
97 2 38.72 4.19156 0 
98 2 39.93 6.28734 0 
99 2 41.14 4.19156 0 
100 2 42.35 6.28734 0 
101 2 43.56 4.19156 0 
102 2 44.77 6.28734 0 
103 2 45.98 4.19156 0 
104 2 47.19 6.28734 0 
105 2 48.4 4.19156 0 
106 2 49.61 6.28734 0 
107 2 50.82 4.19156 0 
108 2 52.03 6.28734 0 
109 2 53.24 4.19156 0 
110 2 54.45 6.28734 0 
111 2 55.66 4.19156 0 
112 2 56.87 6.28734 0 
113 2 58.08 4.19156 0 
114 2 59.29 6.28734 0 
115 2 60.5 4.19156 0 
116 2 61.71 6.28734 0 
117 2 62.92 4.19156 0 
118 1 64.13 6.28734 0 
119 2 65.34 4.19156 0 
120 2 66.55 6.28734 0 
121 2 67.76 4.19156 0 
122 2 68.97 6.28734 0 
123 2 70.18 4.19156 0 
124 2 71.39 6.28734 0 
125 2 72.6 4.19156 0 
126 2 73.81 6.28734 0 
127 2 75.02 4.19156 0 
128 2 76.23 6.28734 0 
129 2 0 8.38313 0 
130 2 1.21 10.4789 0 
131 2 2.42 8.38313 0 
132 1 3.63 10.4789 0 
133 2 4.84 8.38313 0 
134 2 6.05 10.4789 0 
135 2 7.26 8.38313 0 
136 2 8.47 10.4789 0 
137 2 9.68 8.38313 0 
138 2 10.89 10.4789 0 
139 2 12.1 8.38313 0 
140 2 13.31 10.4789 0 
141 2 14.52 8.38313 0 
142 2 15.73 10.4789 0 
143 2 16.94 8.38313 0 
144 2 18.15 10.4789 0 
145 2 19.36 8.38313 0 
146 2 20.57 10.4789 0 
147 2 21.78 8.38313 0 
148 2 22.99 10.4789 0 
149 2 24.2 8.38313 0 
150 2 25.41 10.4789 0 
151 2 26.62 8.38313 0 
152 2 27.83 10.4789 0 
153 2 29.04 8.38313 0 
154 2 30.25 10.4789 0 
155 2 31.46 8.38313 0 
156 2 32.67 10.4789 0 
157 2 33.88 8.38313 0 
158 2 35.09 10.4789 0 
159 2 36.3 8.38313 0 
160 2 37.51 10.4789 0 
161 2 38.72 8.38313 0 
162 2 39.93 10.4789 0 
163 2 41.14 8.38313 0 
164 2 42.35 10.4789 0 
165 2 43.56 8.38313 0 
166 2 44.77 10.4789 0 
167 2 45.98 8.38313 0 
168 2 47.19 10.4789 0 
169 2 48.4 8.38313 0 
170 2 49.61 10.4789 0 
171 2 50.82 8.38313 0 
172 2 52.03 10.4789 0 
173 2 53.24 8.38313 0 
174 2 54.45 10.4789 0 
175 2 55.66 8.38313 0 
176 2 56.87 10.4789 0 
177 2 58.08 8.38313 0 
178 2 59.29 10.4789 0 
179 2 60.5 8.38313 0 
180 2 61.71 10.4789 0 
181 1 62.92 8.38313 0 
182 2 64.13 10.4789 0 
183 2 65.34 8.38313 0 
184 2 66.55 10.4789 0 
185 2 67.76 8.38313 0 
186 2 68.97 10.4789 0 
187 2 70.18 8.38313 0 
188 2 71.39 10.4789 0 
189 2 72.6 8.38313 0 
190 2 73.81 10.4789 0 
191 2 75.02 8.38313 0 
192 2 76.23 10.4789 0 
193 2 0 12.5747 0 
194 2 1.21 14.6705 0 
195 2 2.42 12.5747 0 
196 2 3.63 14.6705 0 
197 1 4.84 12.5747 0 
198 1 6.05 14.6705 0 
199 2 7.26 12.5747 0 
200 2 8.47 14.6705 0 
201 2 9.68 12.5747 0 
202 2 10.89 14.6705 0 
203 2 12.1 12.5747 0 
204 2 13.31 14.6705 0 
205 2 14.52 12.5747 0 
206 2 15.73 14.6705 0 
207 2 16.94 12.5747 0 
208 2 18.15 14.6705 0 
209 2 19.36 12.5747 0 
210 2 20.57 14.6705 0 
211 2 21.78 12.5747 0 
212 2 22.99 14.6705 0 
213 2 24.2 12.5747 0 
214 2 25.41 14.6705 0 
215 2 26.62 12.5747 0 
216 2 27.83 14.6705 0 
217 2 29.04 12.5747 0 
218 2 30.25 14.6705 0 
219 2 31.46 12.5747 0 
220 2 32.67 14.6705 0 
221 2 33.88 12.5747 0 
222 2 35.09 14.6705 0 
223 2 36.3 12.5747 0 
224 2 37.51 14.6705 0 
225 2 38.72 12.5747 0 
226 2 39.93 14.6705 0 
227 2 41.14 12.5747 0 
228 2 42.35 14.6705 0 
229 2 43.56 12.5747 0 
230 2 44.77 14.6705 0 
231 2 45.98 12.5747 0 
232 2 47.19 14.6705 0 
233 2 48.4 12.5747 0 
234 2 49.61 14.6705 0 
235 2 50.82 12.5747 0 
236 2 52.03 14.6705 0 
237 2 53.24 12.5747 0 
238 2 54.45 14.6705 0 
239 2 55.66 12.5747 0 
240 2 56.87 14.6705 0 
241 2 58.08 12.5747 0 
242 2 59.29 14.6705 0 
243 2 60.5 12.5747 0 
244 1 61.71 14.6705 0 
245 1 62.92 12.5747 0 
246 2 64.13 14.6705 0 
247 2 65.34 12.5747 0 
248 2 66.55 14.6705 0 
249 2 67.76 12.5747 0 
250 2 68.97 14.6705 0 
251 2 70.18 12.5747 0 
252 2 71.39 14.6705 0 
253 2 72.6 12.5747 0 
254 2 73.81 14.6705 0 
255 2 75.02 12.5747 0 
256 2 76.23 14.6705 0 
257 2 0 16.7663 0 
258 2 1.21 18.862 0 
259 2 2.42 16.7663 0 
260 2 3.63 18.862 0 
261 1 4.84 16.7663 0 
262 1 6.05 18.862 0 
263 1 7.26 16.7663 0 
264 1 8.47 18.862 0 
265 2 9.68 16.7663 0 
266 2 10.89 18.862 0 
267 2 12.1 16.7663 0 
268 2 13.31 18.862 0 
269 2 14.52 16.7663 0 
270 2 15.73 18.862 0 
271 2 16.94 16.7663 0 
272 2 18.15 18.862 0 
273 2 19.36 16.7663 0 
274 2 20.57 18.862 0 
275 2 21.78 16.7663 0 
276 2 22.99 18.862 0 
277 2 24.2 16.7663 0 
278 2 25.41 18.862 0 
279 2 26.62 16.7663 0 
280 2 27.83 18.862 0 
281 2 29.04 16.7663 0 
282 2 30.25 18.862 0 
283 2 31.46 16.7663 0 
284 2 32.67 18.862 0 
285 2 33.88 16.7663 0 
286 2 35.09 18.862 0 
287 2 36.3 16.7663 0 
288 2 37.51 18.862 0 
289 2 38.72 16.7663 0 
290 2 39.93 18.862 0 
291 2 41.14 16.7663 0 
292 2 42.35 18.862 0 
293 2 43.56 16.7663 0 
294 2 44.77 18.862 0 
295 2 45.98 16.7663 0 
296 2 47.19 18.862 0 
297 2 48.4 16.7663 0 
298 1 49.61 18.862 0 
299 2 50.82 16.7663 0 
300 1 52.03 18.862 0 
301 2 53.24 16.7663 0 
302 1 54.45 18.862 0 
303 2 55.66 16.7663 0 
304 1 56.87 18.862 0 
305 2 58.08 16.7663 0 
306 1 59.29 18.862 0 
307 1 60.5 16.7663 0 
308 1 61.71 18.862 0 
309 1 62.92 16.7663 0 
310 2 64.13 18.862 0 
311 2 65.34 16.7663 0 
312 2 66.55 18.862 0 
313 2 67.76 16.7663 0 
314 2 68.97 18.862 0 
315 2 70.18 16.7663 0 
316 2 71.39 18.862 0 
317 2 72.6 16.7663 0 
318 2 73.81 18.862 0 
319 2 75.02 16.7663 0 
320 2 76.23 18.862 0 
321 2 0 20.9578 0 
322 2 1.21 23.0536 0 
323 2 2.42 20.9578 0 
324 2 3.63 23.0536 0 
325 2 4.84 20.9578 0 
326 2 6.05 23.0536 0 
327 1 7.26 20.9578 0 
328 1 8.47 23.0536 0 
329 1 9.68 20.9578 0 
330 1 10.89 23.0536 0 
331 1 12.1 20.9578 0 
332 1 13.31 23.0536 0 
333 2 14.52 20.9578 0 
334 2 15.73 23.0536 0 
335 2 16.94 20.9578 0 
336 2 18.15 23.0536 0 
337 2 19.36 20.9578 0 
338 2 20.57 23.0536 0 
339 2 21.78 20.9578 0 
340 2 22.99 23.0536 0 
341 2 24.2 20.9578 0 
342 2 25.41 23.0536 0 
343 2 26.62 20.9578 0 
344 2 27.83 23.0536 0 
345 2 29.04 20.9578 0 
346 2 30.25 23.0536 0 
347 2 31.46 20.9578 0 
348 2 32.67 23.0536 0 
349 2 33.88 20.9578 0 
350 2 35.09 23.0536 0 
351 2 36.3 20.9578 0 
352 2 37.51 23.0536 0 
353 2 38.72 20.9578 0 
354 2 39.93 23.0536 0 
355 2 41.14 20.9578 0 
356 2 42.35 23.0536 0 
357 2 43.56 20.9578 0 
358 2 44.77 23.0536 0 
359 2 45.98 20.9578 0 
360 2 47.19 23.0536 0 
361 2 48.4 20.9578 0 
362 2 49.61 23.0536 0 
363 1 50.82 20.9578 0 
364 1 52.03 23.0536 0 
365 1 53.24 20.9578 0 
366 1 54.45 23.0536 0 
367 1 55.66 20.9578 0 
368 1 56.87 23.0536 0 
369 1 58.08 20.9578 0 
370 1 59.29 23.0536 0 
371 1 60.5 20.9578 0 
372 1 61.71 23.0536 0 
373 1 62.92 20.9578 0 
374 1 64.13 23.0536 0 
375 2 65.34 20.9578 0 
376 2 66.55 23.0536 0 
377 2 67.76 20.9578 0 
378 2 68.97 23.0536 0 
379 2 70.18 20.9578 0 
380 2 71.39 23.0536 0 
381 2 72.6 20.9578 0 
382 2 73.81 23.0536 0 
383 2 75.02 20.9578 0 
384 2 76.23 23.0536 0 
385 2 0 25.1494 0 
386 2 1.21 27.2452 0 
387 2 2.42 25.1494 0 
388 2 3.63 27.2452 0 
389 2 4.84 25.1494 0 
390 1 6.05 27.2452 0 
391 1 7.26 25.1494 0 
392 1 8.47 27.2452 0 
393 1 9.68 25.1494 0 
394 1 10.89 27.2452 0 
395 1 12.1 25.1494 0 
396 1 13.31 27.2452 0 
397 1 14.52 25.1494 0 
398 1 15.73 27.2452 0 
399 2 16.94 25.1494 0 
400 2 18.15 27.2452 0 
401 2 19.36 25.1494 0 
402 2 20.57 27.2452 0 
403 2 21.78 25.1494 0 
404 2 22.99 27.2452 0 
405 2 24.2 25.1494 0 
406 2 25.41 27.2452 0 
407 2 26.62 25.1494 0 
408 2 27.83 27.2452 0 
409 2 29.04 25.1494 0 
410 2 30.25 27.2452 0 
411 2 31.46 25.1494 0 
412 2 32.67 27.2452 0 
413 2 33.88 25.1494 0 
414 2 35.09 27.2452 0 
415 2 36.3 25.1494 0 
416 1 37.51 27.2452 0 
417 2 38.72 25.1494 0 
418 1 39.93 27.2452 0 
419 1 41.14 25.1494 0 
420 2 42.35 27.2452 0 
421 2 43.56 25.1494 0 
422 2 44.77 27.2452 0 
423 2 45.98 25.1494 0 
424 2 47.19 27.2452 0 
425 2 48.4 25.1494 0 
426 2 49.61 27.2452 0 
427 2 50.82 25.1494 0 
428 2 52.03 27.2452 0 
429 1 53.24 25.1494 0 
430 1 54.45 27.2452 0 
431 1 55.66 25.1494 0 
432 1 56.87 27.2452 0 
433 1 58.08 25.1494 0 
434 1 59.29 27.2452 0 
435 1 60.5 25.1494 0 
436 1 61.71 27.2452 0 
437 1 62.92 25.1494 0 
438 1 64.13 27.2452 0 
439 2 65.34 25.1494 0 
440 2 66.55 27.2452 0 
441 2 67.76 25.1494 0 
442 2 68.97 27.2452 0 
443 2 70.18 25.1494 0 
444 2 71.39 27.2452 0 
445 2 72.6 25.1494 0 
446 2 73.81 27.2452 0 
447 2 75.02 25.1494 0 
448 2 76.23 27.2452 0 
449 2 0 29.3409 0 
450 2 1.21 31.4367 0 
451 2 2.42 29.3409 0 
452 2 3.63 31.4367 0 
453 2 4.84 29.3409 0 
454 1 6.05 31.4367 0 
455 1 7.26 29.3409 0 
456 1 8.47 31.4367 0 
457 1 9.68 29.3409 0 
458 1 10.89 31.4367 0 
459 1 12.1 29.3409 0 
460 1 13.31 31.4367 0 
461 1 14.52 29.3409 0 
462 1 15.73 31.4367 0 
463 1 16.94 29.3409 0 
464 1 18.15 31.4367 0 
465 1 19.36 29.3409 0 
466 2 20.57 31.4367 0 
467 2 21.78 29.3409 0 
468 2 22.99 31.4367 0 
469 2 24.2 29.3409 0 
470 2 25.41 31.4367 0 
471 2 26.62 29.3409 0 
472 2 27.83 31.4367 0 
473 2 29.04 29.3409 0 
474 2 30.25 31.4367 0 
475 2 31.46 29.3409 0 
476 2 32.67 31.4367 0 
477 2 33.88 29.3409 0 
478 1 35.09 31.4367 0 
479 1 36.3 29.3409 0 
480 1 37.51 31.4367 0 
481 1 38.72 29.3409 0 
482 1 39.93 31.4367 0 
483 1 41.14 29.3409 0 
484 2 42.35 31.4367 0 
485 2 43.56 29.3409 0 
486 2 44.77 31.4367 0 
487 2 45.98 29.3409 0 
488 2 47.19 31.4367 0 
489 2 48.4 29.3409 0 
490 2 49.61 31.4367 0 
491 2 50.82 29.3409 0 
492 2 52.03 31.4367 0 
493 2 53.24 29.3409 0 
494 1 54.45 31.4367 0 
495 1 55.66 29.3409 0 
496 1 56.87 31.4367 0 
497 1 58.08 29.3409 0 
498 1 59.29 31.4367 0 
499 1 60.5 29.3409 0 
500 1 61.71 31.4367 0 
501 1 62.92 29.3409 0 
502 1 64.13 31.4367 0 
503 2 65.34 29.3409 0 
504 2 66.55 31.4367 0 
505 2 67.76 29.3409 0 
506 2 68.97 31.4367 0 
507 2 70.18 29.3409 0 
508 2 71.39 31.4367 0 
509 2 72.6 29.3409 0 
510 2 73.81 31.4367 0 
511 2 75.02 29.3409 0 
512 2 76.23 31.4367 0 
513 2 0 33.5325 0 
514 2 1.21 35.6283 0 
515 2 2.42 33.5325 0 
516 2 3.63 35.6283 0 
517 2 4.84 33.5325 0 
518 2 6.05 35.6283 0 
519 1 7.26 33.5325 0 
520 1 8.47 35.6283 0 
521 1 9.68 33.5325 0 
522 1 10.89 35.6283 0 
523 1 12.1 33.5325 0 
524 1 13.31 35.6283 0 
525 1 14.52 33.5325 0 
526 1 15.73 35.6283 0 
527 1 16.94 33.5325 0 
528 1 18.15 35.6283 0 
529 1 19.36 33.5325 0 
530 2 20.57 35.6283 0 
531 2 21.78 33.5325 0 
532 2 22.99 35.6283 0 
533 2 24.2 33.5325 0 
534 2 25.41 35.6283 0 
535 2 26.62 33.5325 0 
536 2 27.83 35.6283 0 
537 2 29.04 33.5325 0 
538 2 30.25 35.6283 0 
539 2 31.46 33.5325 0 
540 2 32.67 35.6283 0 
541 1 33.88 33.5325 0 
542 1 35.09 35.6283 0 
543 1 36.3 33.5325 0 
544 1 37.51 35.6283 0 
545 1 38.72 33.5325 0 
546 1 39.93 35.6283 0 
547 2 41.14 33.5325 0 
548 2 42.35 35.6283 0 
549 2 43.56 33.5325 0 
550 2 44.77 35.6283 0 
551 2 45.98 33.5325 0 
552 2 47.19 35.6283 0 
553 2 48.4 33.5325 0 
554 2 49.61 35.6283 0 
555 2 50.82 33.5325 0 
556 2 52.03 35.6283 0 
557 2 53.24 33.5325 0 
558 2 54.45 35.6283 0 
559 1 55.66 33.5325 0 
560 1 56.87 35.6283 0 
561 1 58.08 33.5325 0 
562 1 59.29 35.6283 0 
563 1 60.5 33.5325 0 
564 1 61.71 35.6283 0 
565 1 62.92 33.5325 0 
566 1 64.13 35.6283 0 
567 1 65.34 33.5325 0 
568 1 66.55 35.6283 0 
569 1 67.76 33.5325 0 
570 1 68.97 35.6283 0 
571 2 70.18 33.5325 0 
572 1 71.39 35.6283 0 
573 2 72.6 33.5325 0 
574 2 73.81 35.6283 0 
575 2 75.02 33.5325 0 
576 2 76.23 35.6283 0 
577 2 0 37.7241 0 
578 2 1.21 39.8198 0 
579 2 2.42 37.7241 0 
580 2 3.63 39.8198 0 
581 2 4.84 37.7241 0 
582 1 6.05 39.8198 0 
583 2 7.26 37.7241 0 
584 1 8.47 39.8198 0 
585 1 9.68 37.7241 0 
586 1 10.89 39.8198 0 
587 1 12.1 37.7241 0 
588 1 13.31 39.8198 0 
589 1 14.52 37.7241 0 
590 1 15.73 39.8198 0 
591 1 16.94 37.7241 0 
592 2 18.15 39.8198 0 
593 2 19.36 37.7241 0 
594 2 20.57 39.8198 0 
595 2 21.78 37.7241 0 
596 2 22.99 39.8198 0 
597 2 24.2 37.7241 0 
598 2 25.41 39.8198 0 
599 2 26.62 37.7241 0 
600 1 27.83 39.8198 0 
601 1 29.04 37.7241 0 
602 1 30.25 39.8198 0 
603 1 31.46 37.7241 0 
604 1 32.67 39.8198 0 
605 1 33.88 37.7241 0 
606 1 35.09 39.8198 0 
607 1 36.3 37.7241 0 
608 1 37.51 39.8198 0 
609 1 38.72 37.7241 0 
610 1 39.93 39.8198 0 
611 1 41.14 37.7241 0 
612 1 42.35 39.8198 0 
613 2 43.56 37.7241 0 
614 1 44.77 39.8198 0 
615 2 45.98 37.7241 0 
616 1 47.19 39.8198 0 
617 1 48.4 37.7241 0 
618 1 49.61 39.8198 0 
619 2 50.82 37.7241 0 
620 2 52.03 39.8198 0 
621 2 53.24 37.7241 0 
622 2 54.45 39.8198 0 
623 2 55.66 37.7241 0 
624 2 56.87 39.8198 0 
625 1 58.08 37.7241 0 
626 1 59.29 39.8198 0 
627 1 60.5 37.7241 0 
628 1 61.71 39.8198 0 
629 1 62.92 37.7241 0 
630 1 64.13 39.8198 0 
631 1 65.34 37.7241 0 
632 1 66.55 39.8198 0 
633 1 67.76 37.7241 0 
634 1 68.97 39.8198 0 
635 1 70.18 37.7241 0 
636 1 71.39 39.8198 0 
637 1 72.6 37.7241 0 
638 1 73.81 39.8198 0 
639 1 75.02 37.7241 0 
640 1 76.23 39.8198 0 
641 1 0 41.9156 0 
642 1 1.21 44.0114 0 
643 1 2.42 41.9156 0 
644 1 3.63 44.0114 0 
645 1 4.84 41.9156 0 
646 1 6.05 44.0114 0 
647 1 7.26 41.9156 0 
648 1 8.47 44.0114 0 
649 1 9.68 41.9156 0 
650 1 10.89 44.0114 0 
651 1 12.1 41.9156 0 
652 1 13.31 44.0114 0 
653 1 14.52 41.9156 0 
654 1 15.73 44.0114 0 
655 2 16.94 41.9156 0 
656 2 18.15 44.0114 0 
657 2 19.36 41.9156 0 
658 1 20.57 44.0114 0 
659 1 21.78 41.9156 0 
660 1 22.99 44.0114 0 
661 1 24.2 41.9156 0 
662 1 25.41 44.0114 0 
663 1 26.62 41.9156 0 
664 1 27.83 44.0114 0 
665 1 29.04 41.9156 0 
666 1 30.25 44.0114 0 
667 1 31.46 41.9156 0 
668 1 32.67 44.0114 0 
669 1 33.88 41.9156 0 
670 1 35.09 44.0114 0 
671 1 36.3 41.9156 0 
672 1 37.51 44.0114 0 
673 1 38.72 41.9156 0 
674 1 39.93 44.0114 0 
675 1 41.14 41.9156 0 
676 1 42.35 44.0114 0 
677 1 43.56 41.9156 0 
678 1 44.77 44.0114 0 
679 1 45.98 41.9156 0 
680 1 47.19 44.0114 0 
681 1 48.4 41.9156 0 
682 1 49.61 44.0114 0 
683 1 50.82 41.9156 0 
684 1 52.03 44.0114 0 
685 1 53.24 41.9156 0 
686 1 54.45 44.0114 0 
687 2 55.66 41.9156 0 
688 1 56.87 44.0114 0 
689 2 58.08 41.9156 0 
690 1 59.29 44.0114 0 
691 1 60.5 41.9156 0 
692 1 61.71 44.0114 0 
693 1 62.92 41.9156 0 
694 1 64.13 44.0114 0 
695 1 65.34 41.9156 0 
696 1 66.55 44.0114 0 
697 1 67.76 41.9156 0 
698 1 68.97 44.0114 0 
699 1 70.18 41.9156 0 
700 1 71.39 44.0114 0 
701 1 72.6 41.9156 0 
702 1 73.81 44.0114 0 
703 1 75.02 41.9156 0 
704 1 76.23 44.0114 0 
705 1 0 46.1072 0 
706 1 1.21 48.203 0 
707 1 2.42 46.1072 0 
708 1 3.63 48.203 0 
709 1 4.84 46.1072 0 
710 1 6.05 48.203 0 
711 1 7.26 46.1072 0 
712 1 8.47 48.203 0 
713 1 9.68 46.1072 0 
714 1 10.89 48.203 0 
715 1 12.1 46.1072 0 
716 1 13.31 48.203 0 
717 1 14.52 46.1072 0 
718 1 15.73 48.203 0 
719 1 16.94 46.1072 0 
720 1 18.15 48.203 0 
721 1 19.36 46.1072 0 
722 1 20.57 48.203 0 
723 1 21.78 46.1072 0 
724 1 22.99 48.203 0 
725 1 24.2 46.1072 0 
726 1 25.41 48.203 0 
727 1 26.62 46.1072 0 
728 1 27.83 48.203 0 
729 1 29.04 46.1072 0 
730 1 30.25 48.203 0 
731 1 31.46 46.1072 0 
732 1 32.67 48.203 0 
733 1 33.88 46.1072 0 
734 1 35.09 48.203 0 
735 1 36.3 46.1072 0 
736 1 37.51 48.203 0 
737 1 38.72 46.1072 0 
738 1 39.93 48.203 0 
739 1 41.14 46.1072 0 
740 1 42.35 48.203 0 
741 1 43.56 46.1072 0 
742 1 44.77 48.203 0 
743 1 45.98 46.1072 0 
744 1 47.19 48.203 0 
745 1 48.4 46.1072 0 
746 1 49.61 48.203 0 
747 1 50.82 46.1072 0 
748 1 52.03 48.203 0 
749 1 53.24 46.1072 0 
750 1 54.45 48.203 0 
751 1 55.66 46.1072 0 
752 1 56.87 48.203 0 
753 1 58.08 46.1072 0 
754 1 59.29 48.203 0 
755 1 60.5 46.1072 0 
756 1 61.71 48.203 0 
757 1 62.92 46.1072 0 
758 1 64.13 48.203 0 
759 1 65.34 46.1072 0 
760 1 66.55 48.203 0 
761 1 67.76 46.1072 0 
762 1 68.97 48.203 0 
763 1 70.18 46.1072 0 
764 1 71.39 48.203 0 
765 1 72.6 46.1072 0 
766 1 73.81 48.203 0 
767 1 75.02 46.1072 0 
768 1 76.23 48.203 0 
769 1 0 50.2988 0 
770 1 1.21 52.3945 0 
771 1 2.42 50.2988 0 
772 1 3.63 52.3945 0 
773 1 4.84 50.2988 0 
774 1 6.05 52.3945 0 
775 1 7.26 50.2988 0 
776 1 8.47 52.3945 0 
777 1 9.68 50.2988 0 
778 1 10.89 52.3945 0 
779 1 12.1 50.2988 0 
780 1 13.31 52.3945 0 
781 1 14.52 50.2988 0 
782 1 15.73 52.3945 0 
783 1 16.94 50.2988 0 
784 1 18.15 52.3945 0 
785 1 19.36 50.2988 0 
786 1 20.57 52.3945 0 
787 1 21.78 50.2988 0 
788 1 22.99 52.3945 0 
789 1 24.2 50.2988 0 
790 1 25.41 52.3945 0 
791 1 26.62 50.2988 0 
792 1 27.83 52.3945 0 
793 1 29.04 50.2988 0 
794 1 30.25 52.3945 0 
795 1 31.46 50.2988 0 
796 1 32.67 52.3945 0 
797 1 33.88 50.2988 0 
798 1 35.09 52.3945 0 
799 1 36.3 50.2988 0 
800 1 37.51 52.3945 0 
801 1 38.72 50.2988 0 
802 1 39.93 52.3945 0 
803 1 41.14 50.2988 0 
804 1 42.35 52.3945 0 
805 1 43.56 50.2988 0 
806 1 44.77 52.3945 0 
807 1 45.98 50.2988 0 
808 1 47.19 52.3945 0 
809 1 48.4 50.2988 0 
810 1 49.61 52.3945 0 
811 1 50.82 50.2988 0 
812 1 52.03 52.3945 0 
813 1 53.24 50.2988 0 
814 1 54.45 52.3945 0 
815 1 55.66 50.2988 0 
816 1 56.87 52.3945 0 
817 1 58.08 50.2988 0 
818 1 59.29 52.3945 0 
819 1 60.5 50.2988 0 
820 1 61.71 52.3945 0 
821 1 62.92 50.2988 0 
822 1 64.13 52.3945 0 
823 1 65.34 50.2988 0 
824 1 66.55 52.3945 0 
825 1 67.76 50.2988 0 
826 1 68.97 52.3945 0 
827 1 70.18 50.2988 0 
828 1 71.39 52.3945 0 
829 1 72.6 50.2988 0 
830 1 73.81 52.3945 0 
831 1 75.02 50.2988 0 
832 1 76.23 52.3945 0 
833 1 0 54.4903 0 
834 1 1.21 56.5861 0 
835 1 2.42 54.4903 0 
836 1 3.63 56.5861 0 
837 1 4.84 54.4903 0 
838 1 6.05 56.5861 0 
839 1 7.26 54.4903 0 
840 1 8.47 56.5861 0 
841 1 9.68 54.4903 0 
842 1 10.89 56.5861 0 
843 1 12.1 54.4903 0 
844 1 13.31 56.5861 0 
845 1 14.52 54.4903 0 
846 1 15.73 56.5861 0 
847 1 16.94 54.4903 0 
848 1 18.15 56.5861 0 
849 1 19.36 54.4903 0 
850 1 20.57 56.5861 0 
851 1 21.78 54.4903 0 
852 1 22.99 56.5861 0 
853 1 24.2 54.4903 0 
854 1 25.41 56.5861 0 
855 1 26.62 54.4903 0 
856 1 27.83 56.5861 0 
857 1 29.04 54.4903 0 
858 1 30.25 56.5861 0 
859 1 31.46 54.4903 0 
860 1 32.67 56.5861 0 
861 1 33.88 54.4903 0 
862 1 35.09 56.5861 0 
863 1 36.3 54.4903 0 
864 1 37.51 56.5861 0 
865 1 38.72 54.4903 0 
866 1 39.93 56.5861 0 
867 1 41.14 54.4903 0 
868 1 42.35 56.5861 0 
869 1 43.56 54.4903 0 
870 1 44.77 56.5861 0 
871 1 45.98 54.4903 0 
872 1 47.19 56.5861 0 
873 1 48.4 54.4903 0 
874 1 49.61 56.5861 0 
875 1 50.82 54.4903 0 
876 1 52.03 56.5861 0 
877 1 53.24 54.4903 0 
878 1 54.45 56.5861 0 
879 1 55.66 54.4903 0 
880 1 56.87 56.5861 0 
881 1 58.08 54.4903 0 
882 1 59.29 56.5861 0 
883 1 60.5 54.4903 0 
884 1 61.71 56.5861 0 
885 1 62.92 54.4903 0 
886 1 64.13 56.5861 0 
887 1 65.34 54.4903 0 
888 1 66.55 56.5861 0 
889 1 67.76 54.4903 0 
890 1 68.97 56.5861 0 
891 1 70.18 54.4903 0 
892 1 71.39 56.5861 0 
893 1 72.6 54.4903 0 
894 1 73.81 56.5861 0 
895 1 75.02 54.4903 0 
896 1 76.23 56.5861 0 
897 1 0 58.6819 0 
898 1 1.21 60.7777 0 
899 1 2.42 58.6819 0 
900 1 3.63 60.7777 0 
901 1 4.84 58.6819 0 
902 1 6.05 60.7777 0 
903 1 7.26 58.6819 0 
904 1 8.47 60.7777 0 
905 1 9.68 58.6819 0 
906 1 10.89 60.7777 0 
907 1 12.1 58.6819 0 
908 1 13.31 60.7777 0 
909 1 14.52 58.6819 0 
910 1 15.73 60.7777 0 
911 1 16.94 58.6819 0 
912 1 18.15 60.7777 0 
913 1 19.36 58.6819 0 
914 1 20.57 60.7777 0 
915 1 21.78 58.6819 0 
916 1 22.99 60.7777 0 
917 1 24.2 58.6819 0 
918 1 25.41 60.7777 0 
919 1 26.62 58.6819 0 
920 1 27.83 60.7777 0 
921 1 29.04 58.6819 0 
922 1 30.25 60.7777 0 
923 1 31.46 58.6819 0 
924 1 32.67 60.7777 0 
925 1 33.88 58.6819 0 
926 1 35.09 60.7777 0 
927 1 36.3 58.6819 0 
928 1 37.51 60.7777 0 
929 1 38.72 58.6819 0 
930 1 39.93 60.7777 0 
931 1 41.14 58.6819 0 
932 1 42.35 60.7777 0 
933 1 43.56 58.6819 0 
934 1 44.77 60.7777 0 
935 1 45.98 58.6819 0 
936 1 47.19 60.7777 0 
937 1 48.4 58.6819 0 
938 1 49.61 60.7777 0 
939 1 50.82 58.6819 0 
940 1 52.03 60.7777 0 
941 1 53.24 58.6819 0 
942 1 54.45 60.7777 0 
943 1 55.66 58.6819 0 
944 1 56.87 60.7777 0 
945 1 58.08 58.6819 0 
946 1 59.29 60.7777 0 
947 1 60.5 58.6819 0 
948 1 61.71 60.7777 0 
949 1 62.92 58.6819 0 
950 1 64.13 60.7777 0 
951 1 65.34 58.6819 0 
952 1 66.55 60.7777 0 
953 1 67.76 58.6819 0 
954 1 68.97 60.7777 0 
955 1 70.18 58.6819 0 
956 1 71.39 60.7777 0 
957 1 72.6 58.6819 0 
958 1 73.81 60.7777 0 
959 1 75.02 58.6819 0 
960 1 76.23 60.7777 0 
961 1 0 62.8734 0 
962 1 1.21 64.9692 0 
963 1 2.42 62.8734 0 
964 1 3.63 64.9692 0 
965 1 4.84 62.8734 0 
966 1 6.05 64.9692 0 
967 1 7.26 62.8734 0 
968 1 8.47 64.9692 0 
969 1 9.68 62.8734 0 
970 1 10.89 64.9692 0 
971 1 12.1 62.8734 0 
972 1 13.31 64.9692 0 
973 1 14.52 62.8734 0 
974 1 15.73 64.9692 0 
975 1 16.94 62.8734 0 
976 1 18.15 64.9692 0 
977 1 19.36 62.8734 0 
978 1 20.57 64.9692 0 
979 1 21.78 62.8734 0 
980 1 22.99 64.9692 0 
981 1 24.2 62.8734 0 
982 1 25.41 64.9692 0 
983 1 26.62 62.8734 0 
984 1 27.83 64.9692 0 
985 1 29.04 62.8734 0 
986 1 30.25 64.9692 0 
987 1 31.46 62.8734 0 
988 1 32.67 64.9692 0 
989 1 33.88 62.8734 0 
990 1 35.09 64.9692 0 
991 1 36.3 62.8734 0 
992 1 37.51 64.9692 0 
993 1 38.72 62.8734 0 
994 1 39.93 64.9692 0 
995 1 41.14 62.8734 0 
996 1 42.35 64.9692 0 
997 1 43.56 62.8734 0 
998 1 44.77 64.9692 0 
999 1 45.98 62.8734 0 
1000 1 47.19 64.9692 0 
1001 1 48.4 62.8734 0 
1002 1 49.61 64.9692 0 
1003 1 50.82 62.8734 0 
1004 1 52.03 64.9692 0 
1005 1 53.24 62.8734 0 
1006 1 54.45 64.9692 0 
1007 1 55.66 62.8734 0 
1008 1 56.87 64.9692 0 
1009 1 58.08 62.8734 0 
1010 1 59.29 64.9692 0 
1011 1 60.5 62.8734 0 
1012 1 61.71 64.9692 0 
1013 1 62.92 62.8734 0 
1014 1 64.13 64.9692 0 
1015 1 65.34 62.8734 0 
1016 1 66.55 64.9692 0 
1017 1 67.76 62.8734 0 
1018 1 68.97 64.9692 0 
1019 1 70.18 62.8734 0 
1020 1 71.39 64.9692 0 
1021 1 72.6 62.8734 0 
1022 1 73.81 64.9692 0 
1023 1 75.02 62.8734 0 
1024 1 76.23 64.9692 0 
1025 1 0 67.065 0 
1026 1 1.21 69.1608 0 
1027 1 2.42 67.065 0 
1028 1 3.63 69.1608 0 
1029 1 4.84 67.065 0 
1030 1 6.05 69.1608 0 
1031 1 7.26 67.065 0 
1032 1 8.47 69.1608 0 
1033 1 9.68 67.065 0 
1034 1 10.89 69.1608 0 
1035 1 12.1 67.065 0 
1036 1 13.31 69.1608 0 
1037 1 14.52 67.065 0 
1038 1 15.73 69.1608 0 
1039 1 16.94 67.065 0 
1040 1 18.15 69.1608 0 
1041 1 19.36 67.065 0 
1042 1 20.57 69.1608 0 
1043 1 21.78 67.065 0 
1044 1 22.99 69.1608 0 
1045 1 24.2 67.065 0 
1046 1 25.41 69.1608 0 
1047 1 26.62 67.065 0 
1048 1 27.83 69.1608 0 
1049 1 29.04 67.065 0 
1050 1 30.25 69.1608 0 
1051 1 31.46 67.065 0 
1052 1 32.67 69.1608 0 
1053 1 33.88 67.065 0 
1054 1 35.09 69.1608 0 
1055 1 36.3 67.065 0 
1056 1 37.51 69.1608 0 
1057 1 38.72 67.065 0 
1058 1 39.93 69.1608 0 
1059 1 41.14 67.065 0 
1060 1 42.35 69.1608 0 
1061 1 43.56 67.065 0 
1062 1 44.77 69.1608 0 
1063 1 45.98 67.065 0 
1064 1 47.19 69.1608 0 
1065 1 48.4 67.065 0 
1066 1 49.61 69.1608 0 
1067 1 50.82 67.065 0 
1068 1 52.03 69.1608 0 
1069 1 53.24 67.065 0 
1070 1 54.45 69.1608 0 
1071 1 55.66 67.065 0 
1072 1 56.87 69.1608 0 
1073 1 58.08 67.065 0 
1074 1 59.29 69.1608 0 
1075 1 60.5 67.065 0 
1076 1 61.71 69.1608 0 
1077 1 62.92 67.065 0 
1078 1 64.13 69.1608 0 
1079 1 65.34 67.065 0 
1080 1 66.55 69.1608 0 
1081 1 67.76 67.065 0 
1082 1 68.97 69.1608 0 
1083 1 70.18 67.065 0 
1084 1 71.39 69.1608 0 
1085 1 72.6 67.065 0 
1086 1 73.81 69.1608 0 
1087 1 75.02 67.065 0 
1088 1 76.23 69.1608 0 
1089 1 0 71.2566 0 
1090 1 1.21 73.3524 0 
1091 1 2.42 71.2566 0 
1092 1 3.63 73.3524 0 
1093 1 4.84 71.2566 0 
1094 1 6.05 73.3524 0 
1095 1 7.26 71.2566 0 
1096 1 8.47 73.3524 0 
1097 1 9.68 71.2566 0 
1098 1 10.89 73.3524 0 
1099 1 12.1 71.2566 0 
1100 1 13.31 73.3524 0 
1101 1 14.52 71.2566 0 
1102 1 15.73 73.3524 0 
1103 1 16.94 71.2566 0 
1104 1 18.15 73.3524 0 
1105 1 19.36 71.2566 0 
1106 1 20.57 73.3524 0 
1107 1 21.78 71.2566 0 
1108 1 22.99 73.3524 0 
1109 1 24.2 71.2566 0 
1110 1 25.41 73.3524 0 
1111 1 26.62 71.2566 0 
1112 1 27.83 73.3524 0 
1113 1 29.04 71.2566 0 
1114 1 30.25 73.3524 0 
1115 1 31.46 71.2566 0 
1116 1 32.67 73.3524 0 
1117 1 33.88 71.2566 0 
1118 1 35.09 73.3524 0 
1119 1 36.3 71.2566 0 
1120 1 37.51 73.3524 0 
1121 1 38.72 71.2566 0 
1122 1 39.93 73.3524 0 
1123 1 41.14 71.2566 0 
1124 1 42.35 73.3524 0 
1125 1 43.56 71.2566 0 
1126 1 44.77 73.3524 0 
1127 1 45.98 71.2566 0 
1128 1 47.19 73.3524 0 
1129 1 48.4 71.2566 0 
1130 1 49.61 73.3524 0 
1131 1 50.82 71.2566 0 
1132 1 52.03 73.3524 0 
1133 1 53.24 71.2566 0 
1134 1 54.45 73.3524 0 
1135 1 55.66 71.2566 0 
1136 1 56.87 73.3524 0 
1137 1 58.08 71.2566 0 
1138 1 59.29 73.3524 0 
1139 1 60.5 71.2566 0 
1140 1 61.71 73.3524 0 
1141 1 62.92 71.2566 0 
1142 1 64.13 73.3524 0 
1143 1 65.34 71.2566 0 
1144 1 66.55 73.3524 0 
1145 1 67.76 71.2566 0 
1146 1 68.97 73.3524 0 
1147 1 70.18 71.2566 0 
1148 1 71.39 73.3524 0 
1149 1 72.6 71.2566 0 
1150 1 73.81 73.3524 0 
1151 1 75.02 71.2566 0 
1152 1 76.23 73.3524 0 
1153 1 0 75.4481 0 
1154 1 1.21 77.5439 0 
1155 1 2.42 75.4481 0 
1156 1 3.63 77.5439 0 
1157 1 4.84 75.4481 0 
1158 1 6.05 77.5439 0 
1159 1 7.26 75.4481 0 
1160 1 8.47 77.5439 0 
1161 1 9.68 75.4481 0 
1162 1 10.89 77.5439 0 
1163 1 12.1 75.4481 0 
1164 1 13.31 77.5439 0 
1165 1 14.52 75.4481 0 
1166 1 15.73 77.5439 0 
1167 1 16.94 75.4481 0 
1168 1 18.15 77.5439 0 
1169 1 19.36 75.4481 0 
1170 1 20.57 77.5439 0 
1171 1 21.78 75.4481 0 
1172 1 22.99 77.5439 0 
1173 1 24.2 75.4481 0 
1174 1 25.41 77.5439 0 
1175 1 26.62 75.4481 0 
1176 1 27.83 77.5439 0 
1177 1 29.04 75.4481 0 
1178 1 30.25 77.5439 0 
1179 1 31.46 75.4481 0 
1180 1 32.67 77.5439 0 
1181 1 33.88 75.4481 0 
1182 1 35.09 77.5439 0 
1183 1 36.3 75.4481 0 
1184 1 37.51 77.5439 0 
1185 1 38.72 75.4481 0 
1186 1 39.93 77.5439 0 
1187 1 41.14 75.4481 0 
1188 1 42.35 77.5439 0 
1189 1 43.56 75.4481 0 
1190 1 44.77 77.5439 0 
1191 1 45.98 75.4481 0 
1192 1 47.19 77.5439 0 
1193 1 48.4 75.4481 0 
1194 1 49.61 77.5439 0 
1195 1 50.82 75.4481 0 
1196 1 52.03 77.5439 0 
1197 1 53.24 75.4481 0 
1198 1 54.45 77.5439 0 
1199 1 55.66 75.4481 0 
1200 1 56.87 77.5439 0 
1201 1 58.08 75.4481 0 
1202 1 59.29 77.5439 0 
1203 1 60.5 75.4481 0 
1204 1 61.71 77.5439 0 
1205 1 62.92 75.4481 0 
1206 1 64.13 77.5439 0 
1207 1 65.34 75.4481 0 
1208 1 66.55 77.5439 0 
1209 1 67.76 75.4481 0 
1210 1 68.97 77.5439 0 
1211 1 70.18 75.4481 0 
1212 1 71.39 77.5439 0 
1213 1 72.6 75.4481 0 
1214 1 73.81 77.5439 0 
1215 1 75.02 75.4481 0 
1216 1 76.23 77.5439 0 
1217 1 0 79.6397 0 
1218 1 1.21 81.7355 0 
1219 1 2.42 79.6397 0 
1220 1 3.63 81.7355 0 
1221 1 4.84 79.6397 0 
1222 1 6.05 81.7355 0 
1223 1 7.26 79.6397 0 
1224 1 8.47 81.7355 0 
1225 1 9.68 79.6397 0 
1226 1 10.89 81.7355 0 
1227 1 12.1 79.6397 0 
1228 1 13.31 81.7355 0 
1229 1 14.52 79.6397 0 
1230 1 15.73 81.7355 0 
1231 1 16.94 79.6397 0 
1232 1 18.15 81.7355 0 
1233 1 19.36 79.6397 0 
1234 1 20.57 81.7355 0 
1235 1 21.78 79.6397 0 
1236 1 22.99 81.7355 0 
1237 1 24.2 79.6397 0 
1238 1 25.41 81.7355 0 
1239 1 26.62 79.6397 0 
1240 1 27.83 81.7355 0 
1241 1 29.04 79.6397 0 
1242 1 30.25 81.7355 0 
1243 1 31.46 79.6397 0 
1244 1 32.67 81.7355 0 
1245 1 33.88 79.6397 0 
1246 1 35.09 81.7355 0 
1247 1 36.3 79.6397 0 
1248 1 37.51 81.7355 0 
1249 1 38.72 79.6397 0 
1250 1 39.93 81.7355 0 
1251 1 41.14 79.6397 0 
1252 1 42.35 81.7355 0 
1253 1 43.56 79.6397 0 
1254 1 44.77 81.7355 0 
1255 1 45.98 79.6397 0 
1256 1 47.19 81.7355 0 
1257 1 48.4 79.6397 0 
1258 1 49.61 81.7355 0 
1259 1 50.82 79.6397 0 
1260 1 52.03 81.7355 0 
1261 1 53.24 79.6397 0 
1262 1 54.45 81.7355 0 
1263 1 55.66 79.6397 0 
1264 1 56.87 81.7355 0 
1265 1 58.08 79.6397 0 
1266 1 59.29 81.7355 0 
1267 1 60.5 79.6397 0 
1268 1 61.71 81.7355 0 
1269 1 62.92 79.6397 0 
1270 1 64.13 81.7355 0 
1271 1 65.34 79.6397 0 
1272 1 66.55 81.7355 0 
1273 1 67.76 79.6397 0 
1274 1 68.97 81.7355 0 
1275 1 70.18 79.6397 0 
1276 1 71.39 81.7355 0 
1277 1 72.6 79.6397 0 
1278 1 73.81 81.7355 0 
1279 1 75.02 79.6397 0 
1280 1 76.23 81.7355 0 
1281 1 0 83.8313 0 
1282 1 1.21 85.927 0 
1283 1 2.42 83.8313 0 
1284 1 3.63 85.927 0 
1285 1 4.84 83.8313 0 
1286 1 6.05 85.927 0 
1287 1 7.26 83.8313 0 
1288 1 8.47 85.927 0 
1289 1 9.68 83.8313 0 
1290 1 10.89 85.927 0 
1291 1 12.1 83.8313 0 
1292 1 13.31 85.927 0 
1293 1 14.52 83.8313 0 
1294 1 15.73 85.927 0 
1295 1 16.94 83.8313 0 
1296 1 18.15 85.927 0 
1297 1 19.36 83.8313 0 
1298 1 20.57 85.927 0 
1299 1 21.78 83.8313 0 
1300 1 22.99 85.927 0 
1301 1 24.2 83.8313 0 
1302 1 25.41 85.927 0 
1303 1 26.62 83.8313 0 
1304 1 27.83 85.927 0 
1305 1 29.04 83.8313 0 
1306 1 30.25 85.927 0 
1307 1 31.46 83.8313 0 
1308 1 32.67 85.927 0 
1309 1 33.88 83.8313 0 
1310 1 35.09 85.927 0 
1311 1 36.3 83.8313 0 
1312 1 37.51 85.927 0 
1313 1 38.72 83.8313 0 
1314 1 39.93 85.927 0 
1315 1 41.14 83.8313 0 
1316 1 42.35 85.927 0 
1317 1 43.56 83.8313 0 
1318 1 44.77 85.927 0 
1319 1 45.98 83.8313 0 
1320 1 47.19 85.927 0 
1321 1 48.4 83.8313 0 
1322 1 49.61 85.927 0 
1323 1 50.82 83.8313 0 
1324 1 52.03 85.927 0 
1325 1 53.24 83.8313 0 
1326 1 54.45 85.927 0 
1327 1 55.66 83.8313 0 
1328 1 56.87 85.927 0 
1329 1 58.08 83.8313 0 
1330 1 59.29 85.927 0 
1331 1 60.5 83.8313 0 
1332 1 61.71 85.927 0 
1333 1 62.92 83.8313 0 
1334 1 64.13 85.927 0 
1335 1 65.34 83.8313 0 
1336 1 66.55 85.927 0 
1337 1 67.76 83.8313 0 
1338 1 68.97 85.927 0 
1339 1 70.18 83.8313 0 
1340 1 71.39 85.927 0 
1341 1 72.6 83.8313 0 
1342 1 73.81 85.927 0 
1343 1 75.02 83.8313 0 
1344 1 76.23 85.927 0 
1345 1 0 88.0228 0 
1346 1 1.21 90.1186 0 
1347 1 2.42 88.0228 0 
1348 1 3.63 90.1186 0 
1349 1 4.84 88.0228 0 
1350 1 6.05 90.1186 0 
1351 1 7.26 88.0228 0 
1352 1 8.47 90.1186 0 
1353 1 9.68 88.0228 0 
1354 1 10.89 90.1186 0 
1355 1 12.1 88.0228 0 
1356 1 13.31 90.1186 0 
1357 1 14.52 88.0228 0 
1358 1 15.73 90.1186 0 
1359 1 16.94 88.0228 0 
1360 1 18.15 90.1186 0 
1361 1 19.36 88.0228 0 
1362 1 20.57 90.1186 0 
1363 1 21.78 88.0228 0 
1364 1 22.99 90.1186 0 
1365 1 24.2 88.0228 0 
1366 1 25.41 90.1186 0 
1367 1 26.62 88.0228 0 
1368 1 27.83 90.1186 0 
1369 1 29.04 88.0228 0 
1370 1 30.25 90.1186 0 
1371 1 31.46 88.0228 0 
1372 1 32.67 90.1186 0 
1373 1 33.88 88.0228 0 
1374 1 35.09 90.1186 0 
1375 1 36.3 88.0228 0 
1376 1 37.51 90.1186 0 
1377 1 38.72 88.0228 0 
1378 1 39.93 90.1186 0 
1379 1 41.14 88.0228 0 
1380 1 42.35 90.1186 0 
1381 1 43.56 88.0228 0 
1382 1 44.77 90.1186 0 
1383 1 45.98 88.0228 0 
1384 1 47.19 90.1186 0 
1385 1 48.4 88.0228 0 
1386 1 49.61 90.1186 0 
1387 1 50.82 88.0228 0 
1388 1 52.03 90.1186 0 
1389 1 53.24 88.0228 0 
1390 1 54.45 90.1186 0 
1391 1 55.66 88.0228 0 
1392 1 56.87 90.1186 0 
1393 1 58.08 88.0228 0 
1394 1 59.29 90.1186 0 
1395 1 60.5 88.0228 0 
1396 1 61.71 90.1186 0 
1397 1 62.92 88.0228 0 
1398 1 64.13 90.1186 0 
1399 1 65.34 88.0228 0 
1400 1 66.55 90.1186 0 
1401 1 67.76 88.0228 0 
1402 1 68.97 90.1186 0 
1403 1 70.18 88.0228 0 
1404 1 71.39 90.1186 0 
1405 1 72.6 88.0228 0 
1406 1 73.81 90.1186 0 
1407 1 75.02 88.0228 0 
1408 1 76.23 90.1186 0 
1409 1 0 92.2144 0 
1410 1 1.21 94.3102 0 
1411 1 2.42 92.2144 0 
1412 1 3.63 94.3102 0 
1413 1 4.84 92.2144 0 
1414 1 6.05 94.3102 0 
1415 1 7.26 92.2144 0 
1416 1 8.47 94.3102 0 
1417 1 9.68 92.2144 0 
1418 1 10.89 94.3102 0 
1419 1 12.1 92.2144 0 
1420 1 13.31 94.3102 0 
1421 1 14.52 92.2144 0 
1422 1 15.73 94.3102 0 
1423 1 16.94 92.2144 0 
1424 1 18.15 94.3102 0 
1425 1 19.36 92.2144 0 
1426 1 20.57 94.3102 0 
1427 1 21.78 92.2144 0 
1428 1 22.99 94.3102 0 
1429 1 24.2 92.2144 0 
1430 1 25.41 94.3102 0 
1431 1 26.62 92.2144 0 
1432 1 27.83 94.3102 0 
1433 1 29.04 92.2144 0 
1434 1 30.25 94.3102 0 
1435 1 31.46 92.2144 0 
1436 1 32.67 94.3102 0 
1437 1 33.88 92.2144 0 
1438 1 35.09 94.3102 0 
1439 1 36.3 92.2144 0 
1440 1 37.51 94.3102 0 
1441 1 38.72 92.2144 0 
1442 1 39.93 94.3102 0 
1443 1 41.14 92.2144 0 
1444 1 42.35 94.3102 0 
1445 1 43.56 92.2144 0 
1446 1 44.77 94.3102 0 
1447 1 45.98 92.2144 0 
1448 1 47.19 94.3102 0 
1449 1 48.4 92.2144 0 
1450 1 49.61 94.3102 0 
1451 1 50.82 92.2144 0 
1452 1 52.03 94.3102 0 
1453 1 53.24 92.2144 0 
1454 1 54.45 94.3102 0 
1455 1 55.66 92.2144 0 
1456 1 56.87 94.3102 0 
1457 1 58.08 92.2144 0 
1458 1 59.29 94.3102 0 
1459 1 60.5 92.2144 0 
1460 1 61.71 94.3102 0 
1461 1 62.92 92.2144 0 
1462 1 64.13 94.3102 0 
1463 1 65.34 92.2144 0 
1464 1 66.55 94.3102 0 
1465 1 67.76 92.2144 0 
1466 1 68.97 94.3102 0 
1467 1 70.18 92.2144 0 
1468 1 71.39 94.3102 0 
1469 1 72.6 92.2144 0 
1470 1 73.81 94.3102 0 
1471 1 75.02 92.2144 0 
1472 1 76.23 94.3102 0 
1473 3 0 96.4059 0 
1474 3 1.21 98.5017 0 
1475 3 2.42 96.4059 0 
1476 3 3.63 98.5017 0 
1477 3 4.84 96.4059 0 
1478 3 6.05 98.5017 0 
1479 3 7.26 96.4059 0 
1480 3 8.47 98.5017 0 
1481 3 9.68 96.4059 0 
1482 3 10.89 98.5017 0 
1483 3 12.1 96.4059 0 
1484 3 13.31 98.5017 0 
1485 3 14.52 96.4059 0 
1486 3 15.73 98.5017 0 
1487 3 16.94 96.4059 0 
1488 3 18.15 98.5017 0 
1489 3 19.36 96.4059 0 
1490 3 20.57 98.5017 0 
1491 3 21.78 96.4059 0 
1492 3 22.99 98.5017 0 
1493 3 24.2 96.4059 0 
1494 3 25.41 98.5017 0 
1495 3 26.62 96.4059 0 
1496 3 27.83 98.5017 0 
1497 3 29.04 96.4059 0 
1498 3 30.25 98.5017 0 
1499 3 31.46 96.4059 0 
1500 3 32.67 98.5017 0 
1501 3 33.88 96.4059 0 
1502 3 35.09 98.5017 0 
1503 3 36.3 96.4059 0 
1504 3 37.51 98.5017 0 
1505 3 38.72 96.4059 0 
1506 3 39.93 98.5017 0 
1507 3 41.14 96.4059 0 
1508 3 42.35 98.5017 0 
1509 3 43.56 96.4059 0 
1510 3 44.77 98.5017 0 
1511 3 45.98 96.4059 0 
1512 3 47.19 98.5017 0 
1513 3 48.4 96.4059 0 
1514 3 49.61 98.5017 0 
1515 3 50.82 96.4059 0 
1516 3 52.03 98.5017 0 
1517 3 53.24 96.4059 0 
1518 3 54.45 98.5017 0 
1519 3 55.66 96.4059 0 
1520 3 56.87 98.5017 0 
1521 3 58.08 96.4059 0 
1522 3 59.29 98.5017 0 
1523 3 60.5 96.4059 0 
1524 3 61.71 98.5017 0 
1525 3 62.92 96.4059 0 
1526 3 64.13 98.5017 0 
1527 3 65.34 96.4059 0 
1528 3 66.55 98.5017 0 
1529 3 67.76 96.4059 0 
1530 3 68.97 98.5017 0 
1531 3 70.18 96.4059 0 
1532 3 71.39 98.5017 0 
1533 3 72.6 96.4059 0 
1534 3 73.81 98.5017 0 
1535 3 75.02 96.4059 0 
1536 3 76.23 98.5017 0 
